Mg   O    H                             
   1.00000000000000     
     9.5557527542000003    0.0000000000000000    0.0000000000000000
    -4.7778763771000001    8.2755246374000002    0.0000000000000000
     0.0000000000000000    0.0000000000000000   32.6250953674000002
   Mg   O    H 
    45     6    12
Selective dynamics
Direct
  0.0000000000000000  0.0000000000000000  0.0000000000000000   F   F   F
  0.9986831929832078  0.9988520114929074  0.1582701219533718   T   T   T
  0.0036810103810083  0.0024269186212464  0.3307888228190734   T   T   T
  0.0000000098065698  0.3333333613114178  0.0000000000000000   F   F   F
  0.0000242395173089  0.3335046703125428  0.1575063116422228   T   T   T
  0.9926639911220150  0.3330021957671931  0.3120577138096152   T   T   T
  0.0000000196131396  0.6666667226228356  0.0000000000000000   F   F   F
  0.9983976631098415  0.6658934412248811  0.1579159597772204   T   T   T
  0.0056686369330237  0.6719996595382298  0.3143496510891453   T   T   T
  0.3333333416982782  0.0000000000000000  0.0000000000000000   F   F   F
  0.3325266698141647  0.9988716329973286  0.1572961054223683   T   T   T
  0.3280633604815932  0.9987148780715884  0.3087212781640076   T   T   T
  0.3333333515048480  0.3333333613114178  0.0000000000000000   F   F   F
  0.3317405489824239  0.3312422439114400  0.1568911595753661   T   T   T
  0.3210469886520357  0.3238637907050546  0.3113801948300292   T   T   T
  0.3333333597416868  0.6666667226228356  0.0000000000000000   F   F   F
  0.3318979160851541  0.6666904934235518  0.1579383155672360   T   T   T
  0.3231541635528501  0.6729975229819445  0.3297049989069620   T   T   T
  0.6666666832919077  0.0000000000000000  0.0000000000000000   F   F   F
  0.6662541673423732  0.9981842925025717  0.1577349178003260   T   T   T
  0.6708712333147133  0.0029431304521239  0.3132913915574562   T   T   T
  0.6666666806452426  0.3333333613114178  0.0000000000000000   F   F   F
  0.6666668366776847  0.3346671620408941  0.1588334207694402   T   T   T
  0.6603868214565480  0.3143431068110729  0.3266705624726001   T   T   T
  0.6666667030096960  0.6666667226228356  0.0000000000000000   F   F   F
  0.6685854350184712  0.6665443130728548  0.1586430495118947   T   T   T
  0.6660328151101922  0.6665050727055970  0.3264280120082930   T   T   T
  0.1111111284960415  0.2222222216206760  0.0798214519428555   F   F   F
  0.1062061184172975  0.2183796174299601  0.2359349424132091   T   T   T
  0.1111111350571008  0.5555556118124798  0.0798214519428555   F   F   F
  0.1148184605905342  0.5572249115845338  0.2366234526295230   T   T   T
  0.1111111554345570  0.8888889442433907  0.0798214519428555   F   F   F
  0.1069786825180614  0.8871988205183143  0.2348540407935573   T   T   T
  0.4444445023215593  0.2222222216206760  0.0798214519428555   F   F   F
  0.4457969077174724  0.2251030027046141  0.2355827252491665   T   T   T
  0.4444445016618417  0.5555556118124798  0.0798214519428555   F   F   F
  0.4443265508061742  0.5548825723476511  0.2342523566582173   T   T   T
  0.4444445131441270  0.8888889442433907  0.0798214519428555   F   F   F
  0.4439328671000595  0.8828499913167107  0.2362752653633535   T   T   T
  0.7777777941022634  0.2222222216206760  0.0798214519428555   F   F   F
  0.7742714524910639  0.2200541781532337  0.2351490959613400   T   T   T
  0.7777778058957736  0.5555556118124798  0.0798214519428555   F   F   F
  0.7710838363364019  0.5494875642988504  0.2416455341076116   T   T   T
  0.7777778387265144  0.8888889442433907  0.0798214519428555   F   F   F
  0.7780834975371533  0.8827768541018273  0.2399749405494518   T   T   T
  0.0037028697821668  0.9988109724971679  0.3960781756203531   T   T   T
  0.3010781751461096  0.9747087170166893  0.4127994541738218   T   T   T
  0.8924733991424034  0.2135328607835874  0.4161168726278746   T   T   T
  0.6194662827042237  0.3265130477749167  0.3895453661457609   T   T   T
  0.6558062313174560  0.6083979443396430  0.3854915288462308   T   T   T
  0.3738242757844574  0.6991492462484530  0.3933308056114129   T   T   T
  0.9728173594195582  0.0728313991923670  0.4095495241458096   T   T   T
  0.0987430951342532  0.0065807235131388  0.4100837192226479   T   T   T
  0.3949864805681429  0.0829664739455325  0.4082002934679636   T   T   T
  0.2623222471541027  0.9348891646967630  0.3845987847224634   T   T   T
  0.9866279384039345  0.3225106615557891  0.4173748190200826   T   T   T
  0.8588506968394398  0.2021169852783515  0.3867940160021206   T   T   T
  0.6340536886086525  0.4450495206802927  0.3922406696604455   T   T   T
  0.6947394464698817  0.3175928442422205  0.4082444381941244   T   T   T
  0.7568755382468240  0.6822419953971774  0.3993472699641956   T   T   T
  0.4294741187008100  0.5475100894747911  0.3264918983885750   T   T   T
  0.3766219608998469  0.7915884864406522  0.4074549915938803   T   T   T
  0.4679624047670146  0.6896642692480839  0.4016677739499386   T   T   T
 
  0.00000000E+00  0.00000000E+00  0.00000000E+00
  0.00000000E+00  0.00000000E+00  0.00000000E+00
  0.00000000E+00  0.00000000E+00  0.00000000E+00
  0.00000000E+00  0.00000000E+00  0.00000000E+00
  0.00000000E+00  0.00000000E+00  0.00000000E+00
  0.00000000E+00  0.00000000E+00  0.00000000E+00
  0.00000000E+00  0.00000000E+00  0.00000000E+00
  0.00000000E+00  0.00000000E+00  0.00000000E+00
  0.00000000E+00  0.00000000E+00  0.00000000E+00
  0.00000000E+00  0.00000000E+00  0.00000000E+00
  0.00000000E+00  0.00000000E+00  0.00000000E+00
  0.00000000E+00  0.00000000E+00  0.00000000E+00
  0.00000000E+00  0.00000000E+00  0.00000000E+00
  0.00000000E+00  0.00000000E+00  0.00000000E+00
  0.00000000E+00  0.00000000E+00  0.00000000E+00
  0.00000000E+00  0.00000000E+00  0.00000000E+00
  0.00000000E+00  0.00000000E+00  0.00000000E+00
  0.00000000E+00  0.00000000E+00  0.00000000E+00
  0.00000000E+00  0.00000000E+00  0.00000000E+00
  0.00000000E+00  0.00000000E+00  0.00000000E+00
  0.00000000E+00  0.00000000E+00  0.00000000E+00
  0.00000000E+00  0.00000000E+00  0.00000000E+00
  0.00000000E+00  0.00000000E+00  0.00000000E+00
  0.00000000E+00  0.00000000E+00  0.00000000E+00
  0.00000000E+00  0.00000000E+00  0.00000000E+00
  0.00000000E+00  0.00000000E+00  0.00000000E+00
  0.00000000E+00  0.00000000E+00  0.00000000E+00
  0.00000000E+00  0.00000000E+00  0.00000000E+00
  0.00000000E+00  0.00000000E+00  0.00000000E+00
  0.00000000E+00  0.00000000E+00  0.00000000E+00
  0.00000000E+00  0.00000000E+00  0.00000000E+00
  0.00000000E+00  0.00000000E+00  0.00000000E+00
  0.00000000E+00  0.00000000E+00  0.00000000E+00
  0.00000000E+00  0.00000000E+00  0.00000000E+00
  0.00000000E+00  0.00000000E+00  0.00000000E+00
  0.00000000E+00  0.00000000E+00  0.00000000E+00
  0.00000000E+00  0.00000000E+00  0.00000000E+00
  0.00000000E+00  0.00000000E+00  0.00000000E+00
  0.00000000E+00  0.00000000E+00  0.00000000E+00
  0.00000000E+00  0.00000000E+00  0.00000000E+00
  0.00000000E+00  0.00000000E+00  0.00000000E+00
  0.00000000E+00  0.00000000E+00  0.00000000E+00
  0.00000000E+00  0.00000000E+00  0.00000000E+00
  0.00000000E+00  0.00000000E+00  0.00000000E+00
  0.00000000E+00  0.00000000E+00  0.00000000E+00
  0.00000000E+00  0.00000000E+00  0.00000000E+00
  0.00000000E+00  0.00000000E+00  0.00000000E+00
  0.00000000E+00  0.00000000E+00  0.00000000E+00
  0.00000000E+00  0.00000000E+00  0.00000000E+00
  0.00000000E+00  0.00000000E+00  0.00000000E+00
  0.00000000E+00  0.00000000E+00  0.00000000E+00
  0.00000000E+00  0.00000000E+00  0.00000000E+00
  0.00000000E+00  0.00000000E+00  0.00000000E+00
  0.00000000E+00  0.00000000E+00  0.00000000E+00
  0.00000000E+00  0.00000000E+00  0.00000000E+00
  0.00000000E+00  0.00000000E+00  0.00000000E+00
  0.00000000E+00  0.00000000E+00  0.00000000E+00
  0.00000000E+00  0.00000000E+00  0.00000000E+00
  0.00000000E+00  0.00000000E+00  0.00000000E+00
  0.00000000E+00  0.00000000E+00  0.00000000E+00
  0.00000000E+00  0.00000000E+00  0.00000000E+00
  0.00000000E+00  0.00000000E+00  0.00000000E+00
  0.00000000E+00  0.00000000E+00  0.00000000E+00
