Mg   O    H                             
   1.00000000000000     
     9.5557527542000003    0.0000000000000000    0.0000000000000000
    -4.7778763771000001    8.2755246374000002    0.0000000000000000
     0.0000000000000000    0.0000000000000000   32.6250953674000002
   Mg   O    H 
    45     6    12
Selective dynamics
Direct
  0.0000000000000000  0.0000000000000000  0.0000000000000000   F   F   F
  0.9986831929832097  0.9988520114929043  0.1582701219533705   T   T   T
  0.0036810103810081  0.0024269186212472  0.3307888228190735   T   T   T
  0.0000000098065698  0.3333333613114178  0.0000000000000000   F   F   F
  0.0000242395173065  0.3335046703125403  0.1575063116422212   T   T   T
  0.9926639911220139  0.3330021957671922  0.3120577138096173   T   T   T
  0.0000000196131396  0.6666667226228356  0.0000000000000000   F   F   F
  0.9983976631098438  0.6658934412248835  0.1579159597772202   T   T   T
  0.0056686369330211  0.6719996595382288  0.3143496510891436   T   T   T
  0.3333333416982782  0.0000000000000000  0.0000000000000000   F   F   F
  0.3325266698141615  0.9988716329973280  0.1572961054223700   T   T   T
  0.3280633604815900  0.9987148780715904  0.3087212781640074   T   T   T
  0.3333333515048480  0.3333333613114178  0.0000000000000000   F   F   F
  0.3317405489824237  0.3312422439114378  0.1568911595753690   T   T   T
  0.3210469886520358  0.3238637907050539  0.3113801948300301   T   T   T
  0.3333333597416868  0.6666667226228356  0.0000000000000000   F   F   F
  0.3318979160851537  0.6666904934235504  0.1579383155672364   T   T   T
  0.3231541635528466  0.6729975229819480  0.3297049989069639   T   T   T
  0.6666666832919077  0.0000000000000000  0.0000000000000000   F   F   F
  0.6662541673423723  0.9981842925025735  0.1577349178003276   T   T   T
  0.6708712333147122  0.0029431304521261  0.3132913915574598   T   T   T
  0.6666666806452426  0.3333333613114178  0.0000000000000000   F   F   F
  0.6666668366776817  0.3346671620408914  0.1588334207694437   T   T   T
  0.6603868214565463  0.3143431068110756  0.3266705624725972   T   T   T
  0.6666667030096960  0.6666667226228356  0.0000000000000000   F   F   F
  0.6685854350184718  0.6665443130728519  0.1586430495118963   T   T   T
  0.6660328151101900  0.6665050727055954  0.3264280120082920   T   T   T
  0.1111111284960415  0.2222222216206760  0.0798214519428555   F   F   F
  0.1062061184172994  0.2183796174299624  0.2359349424132109   T   T   T
  0.1111111350571008  0.5555556118124798  0.0798214519428555   F   F   F
  0.1148184605905346  0.5572249115845351  0.2366234526295225   T   T   T
  0.1111111554345570  0.8888889442433907  0.0798214519428555   F   F   F
  0.1069786825180591  0.8871988205183171  0.2348540407935551   T   T   T
  0.4444445023215593  0.2222222216206760  0.0798214519428555   F   F   F
  0.4457969077174699  0.2251030027046113  0.2355827252491683   T   T   T
  0.4444445016618417  0.5555556118124798  0.0798214519428555   F   F   F
  0.4443265508061744  0.5548825723476525  0.2342523566582169   T   T   T
  0.4444445131441270  0.8888889442433907  0.0798214519428555   F   F   F
  0.4439328671000563  0.8828499913167127  0.2362752653633522   T   T   T
  0.7777777941022634  0.2222222216206760  0.0798214519428555   F   F   F
  0.7742714524910654  0.2200541781532338  0.2351490959613429   T   T   T
  0.7777778058957736  0.5555556118124798  0.0798214519428555   F   F   F
  0.7710838363364031  0.5494875642988510  0.2416455341076089   T   T   T
  0.7777778387265144  0.8888889442433907  0.0798214519428555   F   F   F
  0.7780834975371509  0.8827768541018292  0.2399749405494552   T   T   T
  0.0037028697821699  0.9988109724971714  0.3960781756203540   T   T   T
  0.3010781751461112  0.9747087170166921  0.4127994541738212   T   T   T
  0.8924733991423999  0.2135328607835884  0.4161168726278758   T   T   T
  0.6194662827042255  0.3265130477749148  0.3895453661457577   T   T   T
  0.6558062313174591  0.6083979443396407  0.3854915288462282   T   T   T
  0.3738242757844595  0.6991492462484509  0.3933308056114164   T   T   T
  0.9728173594195603  0.0728313991923661  0.4095495241458077   T   T   T
  0.0987430951342544  0.0065807235131354  0.4100837192226468   T   T   T
  0.3949864805681411  0.0829664739455343  0.4082002934679631   T   T   T
  0.2623222471541008  0.9348891646967639  0.3845987847224634   T   T   T
  0.9866279384039350  0.3225106615557857  0.4173748190200818   T   T   T
  0.8588506968394380  0.2021169852783529  0.3867940160021175   T   T   T
  0.6340536886086530  0.4450495206802900  0.3922406696604488   T   T   T
  0.6947394464698853  0.3175928442422217  0.4082444381941231   T   T   T
  0.7568755382468266  0.6822419953971756  0.3993472699641933   T   T   T
  0.4294741187008119  0.5475100894747945  0.3264918983885734   T   T   T
  0.3766219608998493  0.7915884864406523  0.4074549915938805   T   T   T
  0.4679624047670142  0.6896642692480837  0.4016677739499384   T   T   T
 
  0.00000000E+00  0.00000000E+00  0.00000000E+00
  0.00000000E+00  0.00000000E+00  0.00000000E+00
  0.00000000E+00  0.00000000E+00  0.00000000E+00
  0.00000000E+00  0.00000000E+00  0.00000000E+00
  0.00000000E+00  0.00000000E+00  0.00000000E+00
  0.00000000E+00  0.00000000E+00  0.00000000E+00
  0.00000000E+00  0.00000000E+00  0.00000000E+00
  0.00000000E+00  0.00000000E+00  0.00000000E+00
  0.00000000E+00  0.00000000E+00  0.00000000E+00
  0.00000000E+00  0.00000000E+00  0.00000000E+00
  0.00000000E+00  0.00000000E+00  0.00000000E+00
  0.00000000E+00  0.00000000E+00  0.00000000E+00
  0.00000000E+00  0.00000000E+00  0.00000000E+00
  0.00000000E+00  0.00000000E+00  0.00000000E+00
  0.00000000E+00  0.00000000E+00  0.00000000E+00
  0.00000000E+00  0.00000000E+00  0.00000000E+00
  0.00000000E+00  0.00000000E+00  0.00000000E+00
  0.00000000E+00  0.00000000E+00  0.00000000E+00
  0.00000000E+00  0.00000000E+00  0.00000000E+00
  0.00000000E+00  0.00000000E+00  0.00000000E+00
  0.00000000E+00  0.00000000E+00  0.00000000E+00
  0.00000000E+00  0.00000000E+00  0.00000000E+00
  0.00000000E+00  0.00000000E+00  0.00000000E+00
  0.00000000E+00  0.00000000E+00  0.00000000E+00
  0.00000000E+00  0.00000000E+00  0.00000000E+00
  0.00000000E+00  0.00000000E+00  0.00000000E+00
  0.00000000E+00  0.00000000E+00  0.00000000E+00
  0.00000000E+00  0.00000000E+00  0.00000000E+00
  0.00000000E+00  0.00000000E+00  0.00000000E+00
  0.00000000E+00  0.00000000E+00  0.00000000E+00
  0.00000000E+00  0.00000000E+00  0.00000000E+00
  0.00000000E+00  0.00000000E+00  0.00000000E+00
  0.00000000E+00  0.00000000E+00  0.00000000E+00
  0.00000000E+00  0.00000000E+00  0.00000000E+00
  0.00000000E+00  0.00000000E+00  0.00000000E+00
  0.00000000E+00  0.00000000E+00  0.00000000E+00
  0.00000000E+00  0.00000000E+00  0.00000000E+00
  0.00000000E+00  0.00000000E+00  0.00000000E+00
  0.00000000E+00  0.00000000E+00  0.00000000E+00
  0.00000000E+00  0.00000000E+00  0.00000000E+00
  0.00000000E+00  0.00000000E+00  0.00000000E+00
  0.00000000E+00  0.00000000E+00  0.00000000E+00
  0.00000000E+00  0.00000000E+00  0.00000000E+00
  0.00000000E+00  0.00000000E+00  0.00000000E+00
  0.00000000E+00  0.00000000E+00  0.00000000E+00
  0.00000000E+00  0.00000000E+00  0.00000000E+00
  0.00000000E+00  0.00000000E+00  0.00000000E+00
  0.00000000E+00  0.00000000E+00  0.00000000E+00
  0.00000000E+00  0.00000000E+00  0.00000000E+00
  0.00000000E+00  0.00000000E+00  0.00000000E+00
  0.00000000E+00  0.00000000E+00  0.00000000E+00
  0.00000000E+00  0.00000000E+00  0.00000000E+00
  0.00000000E+00  0.00000000E+00  0.00000000E+00
  0.00000000E+00  0.00000000E+00  0.00000000E+00
  0.00000000E+00  0.00000000E+00  0.00000000E+00
  0.00000000E+00  0.00000000E+00  0.00000000E+00
  0.00000000E+00  0.00000000E+00  0.00000000E+00
  0.00000000E+00  0.00000000E+00  0.00000000E+00
  0.00000000E+00  0.00000000E+00  0.00000000E+00
  0.00000000E+00  0.00000000E+00  0.00000000E+00
  0.00000000E+00  0.00000000E+00  0.00000000E+00
  0.00000000E+00  0.00000000E+00  0.00000000E+00
  0.00000000E+00  0.00000000E+00  0.00000000E+00
