Mg   O    H                             
   1.00000000000000     
     9.5557527542000003    0.0000000000000000    0.0000000000000000
    -4.7778763771000001    8.2755246374000002    0.0000000000000000
     0.0000000000000000    0.0000000000000000   32.6250953674000002
   Mg   O    H 
    45     6    12
Selective dynamics
Direct
  0.0000000000000000  0.0000000000000000  0.0000000000000000   F   F   F
  0.9976487560458764  0.9982986075560305  0.1581251879771983   T   T   T
  0.9997137967866649  0.0029088625212381  0.3309127867546096   T   T   T
  0.0000000098065698  0.3333333613114178  0.0000000000000000   F   F   F
  0.9989907570758376  0.3326141665700391  0.1574912030180897   T   T   T
  0.9882786048534697  0.3302746232847937  0.3104107974936099   T   T   T
  0.0000000196131396  0.6666667226228356  0.0000000000000000   F   F   F
  0.9976025989482125  0.6648761007222248  0.1577347944095493   T   T   T
  0.9987520085003965  0.6723273906648117  0.3139322869927810   T   T   T
  0.3333333416982782  0.0000000000000000  0.0000000000000000   F   F   F
  0.3319249583547474  0.9983717775082610  0.1572092631362310   T   T   T
  0.3240978271439801  0.9975372265410982  0.3087235710246787   T   T   T
  0.3333333515048480  0.3333333613114178  0.0000000000000000   F   F   F
  0.3312795223488649  0.3310325312939995  0.1569493497246413   T   T   T
  0.3186671161439421  0.3240157078386616  0.3117474783426957   T   T   T
  0.3333333597416868  0.6666667226228356  0.0000000000000000   F   F   F
  0.3310359370010190  0.6658817145838896  0.1579504366313458   T   T   T
  0.3141902484723289  0.6691998329129802  0.3304824768184815   T   T   T
  0.6666666832919077  0.0000000000000000  0.0000000000000000   F   F   F
  0.6654482622053379  0.9973526267515211  0.1576565527380964   T   T   T
  0.6634003512068105  0.0003484180400690  0.3138434159570664   T   T   T
  0.6666666806452426  0.3333333613114178  0.0000000000000000   F   F   F
  0.6656352185378438  0.3337879391191905  0.1587937279919913   T   T   T
  0.6577538661508484  0.3158467653471106  0.3259005797359578   T   T   T
  0.6666667030096960  0.6666667226228356  0.0000000000000000   F   F   F
  0.6679963943316380  0.6661933993564517  0.1588905035048569   T   T   T
  0.6582726986811878  0.6692957647222073  0.3288128215195627   T   T   T
  0.1111111284960415  0.2222222216206760  0.0798214519428555   F   F   F
  0.1058368625656243  0.2174419668729399  0.2357311025915507   T   T   T
  0.1111111350571008  0.5555556118124798  0.0798214519428555   F   F   F
  0.1127939976385051  0.5567735482574818  0.2365836683232700   T   T   T
  0.1111111554345570  0.8888889442433907  0.0798214519428555   F   F   F
  0.1049125452970188  0.8856696912486868  0.2343894513061073   T   T   T
  0.4444445023215593  0.2222222216206760  0.0798214519428555   F   F   F
  0.4438207235965592  0.2238440319691506  0.2357122082458289   T   T   T
  0.4444445016618417  0.5555556118124798  0.0798214519428555   F   F   F
  0.4425208186302214  0.5543673650347358  0.2345089699372451   T   T   T
  0.4444445131441270  0.8888889442433907  0.0798214519428555   F   F   F
  0.4417581115755453  0.8816837682850505  0.2361786841795279   T   T   T
  0.7777777941022634  0.2222222216206760  0.0798214519428555   F   F   F
  0.7711832709177457  0.2177440715161865  0.2348295566237653   T   T   T
  0.7777778058957736  0.5555556118124798  0.0798214519428555   F   F   F
  0.7681041244746680  0.5482851578470900  0.2415902850484741   T   T   T
  0.7777778387265144  0.8888889442433907  0.0798214519428555   F   F   F
  0.7767497909929943  0.8825526649726569  0.2406226689138080   T   T   T
  0.9952146313533135  0.0100453764287991  0.3963363356489964   T   T   T
  0.2796627216933132  0.9650245846399699  0.4127132309441635   T   T   T
  0.9041599921267505  0.2427281121555325  0.4131663595134896   T   T   T
  0.6329208757504006  0.3440065807203538  0.3880029714430933   T   T   T
  0.6453969640809163  0.6125079402885518  0.3876618682681325   T   T   T
  0.3218035904650520  0.6863046220150366  0.3956649885224195   T   T   T
  0.9733187417807159  0.0930671420915274  0.4082527881682623   T   T   T
  0.0849393067930464  0.0110204474121005  0.4113794301392986   T   T   T
  0.3799625185131603  0.0701432793221031  0.4115494451357762   T   T   T
  0.2451758499068788  0.9437169769935565  0.3834215891341586   T   T   T
  0.9992533027212858  0.3507970133014808  0.4104184426031381   T   T   T
  0.8597496000649301  0.2179371359143190  0.3847220581517945   T   T   T
  0.6413751276485300  0.4610609883172501  0.3919348452673503   T   T   T
  0.7115793770956813  0.3376538290001605  0.4059456714958145   T   T   T
  0.7290989098387186  0.6939958184585535  0.4051091448154907   T   T   T
  0.4195679311588520  0.5429377957192116  0.3304846602432079   T   T   T
  0.3192839611560032  0.7806684969643811  0.4074500867493924   T   T   T
  0.4095551980662293  0.6775962891338310  0.4087150355043363   T   T   T
 
  0.00000000E+00  0.00000000E+00  0.00000000E+00
  0.00000000E+00  0.00000000E+00  0.00000000E+00
  0.00000000E+00  0.00000000E+00  0.00000000E+00
  0.00000000E+00  0.00000000E+00  0.00000000E+00
  0.00000000E+00  0.00000000E+00  0.00000000E+00
  0.00000000E+00  0.00000000E+00  0.00000000E+00
  0.00000000E+00  0.00000000E+00  0.00000000E+00
  0.00000000E+00  0.00000000E+00  0.00000000E+00
  0.00000000E+00  0.00000000E+00  0.00000000E+00
  0.00000000E+00  0.00000000E+00  0.00000000E+00
  0.00000000E+00  0.00000000E+00  0.00000000E+00
  0.00000000E+00  0.00000000E+00  0.00000000E+00
  0.00000000E+00  0.00000000E+00  0.00000000E+00
  0.00000000E+00  0.00000000E+00  0.00000000E+00
  0.00000000E+00  0.00000000E+00  0.00000000E+00
  0.00000000E+00  0.00000000E+00  0.00000000E+00
  0.00000000E+00  0.00000000E+00  0.00000000E+00
  0.00000000E+00  0.00000000E+00  0.00000000E+00
  0.00000000E+00  0.00000000E+00  0.00000000E+00
  0.00000000E+00  0.00000000E+00  0.00000000E+00
  0.00000000E+00  0.00000000E+00  0.00000000E+00
  0.00000000E+00  0.00000000E+00  0.00000000E+00
  0.00000000E+00  0.00000000E+00  0.00000000E+00
  0.00000000E+00  0.00000000E+00  0.00000000E+00
  0.00000000E+00  0.00000000E+00  0.00000000E+00
  0.00000000E+00  0.00000000E+00  0.00000000E+00
  0.00000000E+00  0.00000000E+00  0.00000000E+00
  0.00000000E+00  0.00000000E+00  0.00000000E+00
  0.00000000E+00  0.00000000E+00  0.00000000E+00
  0.00000000E+00  0.00000000E+00  0.00000000E+00
  0.00000000E+00  0.00000000E+00  0.00000000E+00
  0.00000000E+00  0.00000000E+00  0.00000000E+00
  0.00000000E+00  0.00000000E+00  0.00000000E+00
  0.00000000E+00  0.00000000E+00  0.00000000E+00
  0.00000000E+00  0.00000000E+00  0.00000000E+00
  0.00000000E+00  0.00000000E+00  0.00000000E+00
  0.00000000E+00  0.00000000E+00  0.00000000E+00
  0.00000000E+00  0.00000000E+00  0.00000000E+00
  0.00000000E+00  0.00000000E+00  0.00000000E+00
  0.00000000E+00  0.00000000E+00  0.00000000E+00
  0.00000000E+00  0.00000000E+00  0.00000000E+00
  0.00000000E+00  0.00000000E+00  0.00000000E+00
  0.00000000E+00  0.00000000E+00  0.00000000E+00
  0.00000000E+00  0.00000000E+00  0.00000000E+00
  0.00000000E+00  0.00000000E+00  0.00000000E+00
  0.00000000E+00  0.00000000E+00  0.00000000E+00
  0.00000000E+00  0.00000000E+00  0.00000000E+00
  0.00000000E+00  0.00000000E+00  0.00000000E+00
  0.00000000E+00  0.00000000E+00  0.00000000E+00
  0.00000000E+00  0.00000000E+00  0.00000000E+00
  0.00000000E+00  0.00000000E+00  0.00000000E+00
  0.00000000E+00  0.00000000E+00  0.00000000E+00
  0.00000000E+00  0.00000000E+00  0.00000000E+00
  0.00000000E+00  0.00000000E+00  0.00000000E+00
  0.00000000E+00  0.00000000E+00  0.00000000E+00
  0.00000000E+00  0.00000000E+00  0.00000000E+00
  0.00000000E+00  0.00000000E+00  0.00000000E+00
  0.00000000E+00  0.00000000E+00  0.00000000E+00
  0.00000000E+00  0.00000000E+00  0.00000000E+00
  0.00000000E+00  0.00000000E+00  0.00000000E+00
  0.00000000E+00  0.00000000E+00  0.00000000E+00
  0.00000000E+00  0.00000000E+00  0.00000000E+00
  0.00000000E+00  0.00000000E+00  0.00000000E+00
