Mg   O    H                             
   1.00000000000000     
     9.5557527542000003    0.0000000000000000    0.0000000000000000
    -4.7778763771000001    8.2755246374000002    0.0000000000000000
     0.0000000000000000    0.0000000000000000   32.6250953674000002
   Mg   O    H 
    45     6    12
Selective dynamics
Direct
  0.0000000000000000  0.0000000000000000  0.0000000000000000   F   F   F
  0.9976487560458758  0.9982986075560332  0.1581251879771983   T   T   T
  0.9997137967866681  0.0029088625212416  0.3309127867546062   T   T   T
  0.0000000098065698  0.3333333613114178  0.0000000000000000   F   F   F
  0.9989907570758386  0.3326141665700389  0.1574912030180870   T   T   T
  0.9882786048534726  0.3302746232847903  0.3104107974936123   T   T   T
  0.0000000196131396  0.6666667226228356  0.0000000000000000   F   F   F
  0.9976025989482140  0.6648761007222281  0.1577347944095484   T   T   T
  0.9987520085003986  0.6723273906648113  0.3139322869927781   T   T   T
  0.3333333416982782  0.0000000000000000  0.0000000000000000   F   F   F
  0.3319249583547482  0.9983717775082624  0.1572092631362329   T   T   T
  0.3240978271439774  0.9975372265410988  0.3087235710246788   T   T   T
  0.3333333515048480  0.3333333613114178  0.0000000000000000   F   F   F
  0.3312795223488678  0.3310325312939970  0.1569493497246378   T   T   T
  0.3186671161439395  0.3240157078386616  0.3117474783426973   T   T   T
  0.3333333597416868  0.6666667226228356  0.0000000000000000   F   F   F
  0.3310359370010195  0.6658817145838926  0.1579504366313457   T   T   T
  0.3141902484723261  0.6691998329129830  0.3304824768184803   T   T   T
  0.6666666832919077  0.0000000000000000  0.0000000000000000   F   F   F
  0.6654482622053367  0.9973526267515209  0.1576565527380971   T   T   T
  0.6634003512068088  0.0003484180400688  0.3138434159570674   T   T   T
  0.6666666806452426  0.3333333613114178  0.0000000000000000   F   F   F
  0.6656352185378402  0.3337879391191932  0.1587937279919892   T   T   T
  0.6577538661508486  0.3158467653471123  0.3259005797359597   T   T   T
  0.6666667030096960  0.6666667226228356  0.0000000000000000   F   F   F
  0.6679963943316355  0.6661933993564494  0.1588905035048554   T   T   T
  0.6582726986811898  0.6692957647222048  0.3288128215195618   T   T   T
  0.1111111284960415  0.2222222216206760  0.0798214519428555   F   F   F
  0.1058368625656266  0.2174419668729380  0.2357311025915512   T   T   T
  0.1111111350571008  0.5555556118124798  0.0798214519428555   F   F   F
  0.1127939976385045  0.5567735482574806  0.2365836683232708   T   T   T
  0.1111111554345570  0.8888889442433907  0.0798214519428555   F   F   F
  0.1049125452970170  0.8856696912486843  0.2343894513061106   T   T   T
  0.4444445023215593  0.2222222216206760  0.0798214519428555   F   F   F
  0.4438207235965579  0.2238440319691490  0.2357122082458309   T   T   T
  0.4444445016618417  0.5555556118124798  0.0798214519428555   F   F   F
  0.4425208186302245  0.5543673650347353  0.2345089699372452   T   T   T
  0.4444445131441270  0.8888889442433907  0.0798214519428555   F   F   F
  0.4417581115755461  0.8816837682850500  0.2361786841795257   T   T   T
  0.7777777941022634  0.2222222216206760  0.0798214519428555   F   F   F
  0.7711832709177451  0.2177440715161888  0.2348295566237649   T   T   T
  0.7777778058957736  0.5555556118124798  0.0798214519428555   F   F   F
  0.7681041244746687  0.5482851578470935  0.2415902850484728   T   T   T
  0.7777778387265144  0.8888889442433907  0.0798214519428555   F   F   F
  0.7767497909929936  0.8825526649726538  0.2406226689138074   T   T   T
  0.9952146313533153  0.0100453764287980  0.3963363356489943   T   T   T
  0.2796627216933155  0.9650245846399697  0.4127132309441626   T   T   T
  0.9041599921267471  0.2427281121555303  0.4131663595134908   T   T   T
  0.6329208757504035  0.3440065807203547  0.3880029714430898   T   T   T
  0.6453969640809128  0.6125079402885543  0.3876618682681324   T   T   T
  0.3218035904650525  0.6863046220150361  0.3956649885224161   T   T   T
  0.9733187417807172  0.0930671420915281  0.4082527881682635   T   T   T
  0.0849393067930484  0.0110204474121021  0.4113794301392952   T   T   T
  0.3799625185131584  0.0701432793221018  0.4115494451357790   T   T   T
  0.2451758499068774  0.9437169769935595  0.3834215891341563   T   T   T
  0.9992533027212838  0.3507970133014774  0.4104184426031380   T   T   T
  0.8597496000649323  0.2179371359143223  0.3847220581517913   T   T   T
  0.6413751276485267  0.4610609883172521  0.3919348452673502   T   T   T
  0.7115793770956833  0.3376538290001592  0.4059456714958177   T   T   T
  0.7290989098387195  0.6939958184585526  0.4051091448154914   T   T   T
  0.4195679311588493  0.5429377957192120  0.3304846602432061   T   T   T
  0.3192839611560005  0.7806684969643780  0.4074500867493909   T   T   T
  0.4095551980662318  0.6775962891338345  0.4087150355043390   T   T   T
 
  0.00000000E+00  0.00000000E+00  0.00000000E+00
  0.00000000E+00  0.00000000E+00  0.00000000E+00
  0.00000000E+00  0.00000000E+00  0.00000000E+00
  0.00000000E+00  0.00000000E+00  0.00000000E+00
  0.00000000E+00  0.00000000E+00  0.00000000E+00
  0.00000000E+00  0.00000000E+00  0.00000000E+00
  0.00000000E+00  0.00000000E+00  0.00000000E+00
  0.00000000E+00  0.00000000E+00  0.00000000E+00
  0.00000000E+00  0.00000000E+00  0.00000000E+00
  0.00000000E+00  0.00000000E+00  0.00000000E+00
  0.00000000E+00  0.00000000E+00  0.00000000E+00
  0.00000000E+00  0.00000000E+00  0.00000000E+00
  0.00000000E+00  0.00000000E+00  0.00000000E+00
  0.00000000E+00  0.00000000E+00  0.00000000E+00
  0.00000000E+00  0.00000000E+00  0.00000000E+00
  0.00000000E+00  0.00000000E+00  0.00000000E+00
  0.00000000E+00  0.00000000E+00  0.00000000E+00
  0.00000000E+00  0.00000000E+00  0.00000000E+00
  0.00000000E+00  0.00000000E+00  0.00000000E+00
  0.00000000E+00  0.00000000E+00  0.00000000E+00
  0.00000000E+00  0.00000000E+00  0.00000000E+00
  0.00000000E+00  0.00000000E+00  0.00000000E+00
  0.00000000E+00  0.00000000E+00  0.00000000E+00
  0.00000000E+00  0.00000000E+00  0.00000000E+00
  0.00000000E+00  0.00000000E+00  0.00000000E+00
  0.00000000E+00  0.00000000E+00  0.00000000E+00
  0.00000000E+00  0.00000000E+00  0.00000000E+00
  0.00000000E+00  0.00000000E+00  0.00000000E+00
  0.00000000E+00  0.00000000E+00  0.00000000E+00
  0.00000000E+00  0.00000000E+00  0.00000000E+00
  0.00000000E+00  0.00000000E+00  0.00000000E+00
  0.00000000E+00  0.00000000E+00  0.00000000E+00
  0.00000000E+00  0.00000000E+00  0.00000000E+00
  0.00000000E+00  0.00000000E+00  0.00000000E+00
  0.00000000E+00  0.00000000E+00  0.00000000E+00
  0.00000000E+00  0.00000000E+00  0.00000000E+00
  0.00000000E+00  0.00000000E+00  0.00000000E+00
  0.00000000E+00  0.00000000E+00  0.00000000E+00
  0.00000000E+00  0.00000000E+00  0.00000000E+00
  0.00000000E+00  0.00000000E+00  0.00000000E+00
  0.00000000E+00  0.00000000E+00  0.00000000E+00
  0.00000000E+00  0.00000000E+00  0.00000000E+00
  0.00000000E+00  0.00000000E+00  0.00000000E+00
  0.00000000E+00  0.00000000E+00  0.00000000E+00
  0.00000000E+00  0.00000000E+00  0.00000000E+00
  0.00000000E+00  0.00000000E+00  0.00000000E+00
  0.00000000E+00  0.00000000E+00  0.00000000E+00
  0.00000000E+00  0.00000000E+00  0.00000000E+00
  0.00000000E+00  0.00000000E+00  0.00000000E+00
  0.00000000E+00  0.00000000E+00  0.00000000E+00
  0.00000000E+00  0.00000000E+00  0.00000000E+00
  0.00000000E+00  0.00000000E+00  0.00000000E+00
  0.00000000E+00  0.00000000E+00  0.00000000E+00
  0.00000000E+00  0.00000000E+00  0.00000000E+00
  0.00000000E+00  0.00000000E+00  0.00000000E+00
  0.00000000E+00  0.00000000E+00  0.00000000E+00
  0.00000000E+00  0.00000000E+00  0.00000000E+00
  0.00000000E+00  0.00000000E+00  0.00000000E+00
  0.00000000E+00  0.00000000E+00  0.00000000E+00
  0.00000000E+00  0.00000000E+00  0.00000000E+00
  0.00000000E+00  0.00000000E+00  0.00000000E+00
  0.00000000E+00  0.00000000E+00  0.00000000E+00
  0.00000000E+00  0.00000000E+00  0.00000000E+00
