Mg   O    H                             
   1.00000000000000     
     9.5557527542000003    0.0000000000000000    0.0000000000000000
    -4.7778763771000001    8.2755246374000002    0.0000000000000000
     0.0000000000000000    0.0000000000000000   32.6250953674000002
   Mg   O    H 
    45     6    12
Selective dynamics
Direct
  0.0000000000000000  0.0000000000000000  0.0000000000000000   F   F   F
  0.9988476481029949  0.9997332849123310  0.1582579847660242   T   T   T
  0.0032971148512857  0.0047103640468507  0.3305666031341588   T   T   T
  0.0000000098065698  0.3333333613114178  0.0000000000000000   F   F   F
  0.0001643201114447  0.3339743539022209  0.1575470404169579   T   T   T
  0.9918685448695825  0.3359446703916618  0.3121122459341663   T   T   T
  0.0000000196131396  0.6666667226228356  0.0000000000000000   F   F   F
  0.9987999102507388  0.6667515958995835  0.1579285542554487   T   T   T
  0.0077972648066194  0.6749310697401896  0.3137217762257691   T   T   T
  0.3333333416982782  0.0000000000000000  0.0000000000000000   F   F   F
  0.3330472071659898  0.9996931260045727  0.1572239645106279   T   T   T
  0.3288472515388747  0.0029674983485251  0.3085687530341161   T   T   T
  0.3333333515048480  0.3333333613114178  0.0000000000000000   F   F   F
  0.3316393826405886  0.3317162527219395  0.1569730404349485   T   T   T
  0.3210563219875695  0.3269276106695926  0.3116829809332557   T   T   T
  0.3333333597416868  0.6666667226228356  0.0000000000000000   F   F   F
  0.3322651663964109  0.6676431048999660  0.1579133834849742   T   T   T
  0.3240299437387080  0.6767246195672740  0.3297082134689830   T   T   T
  0.6666666832919077  0.0000000000000000  0.0000000000000000   F   F   F
  0.6662174577162219  0.9987789107199703  0.1577788812474523   T   T   T
  0.6713358134979401  0.0043405735372914  0.3133485270616987   T   T   T
  0.6666666806452426  0.3333333613114178  0.0000000000000000   F   F   F
  0.6668084455949668  0.3352240698576523  0.1588432107220044   T   T   T
  0.6602337047675846  0.3167127932456211  0.3281541672687638   T   T   T
  0.6666667030096960  0.6666667226228356  0.0000000000000000   F   F   F
  0.6690838955508056  0.6672819742749709  0.1585043604732448   T   T   T
  0.6639185586407592  0.6671098330545320  0.3246494050499820   T   T   T
  0.1111111284960415  0.2222222216206760  0.0798214519428555   F   F   F
  0.1060742358762354  0.2192907384170084  0.2362331578044561   T   T   T
  0.1111111350571008  0.5555556118124798  0.0798214519428555   F   F   F
  0.1157210081803015  0.5581817221002652  0.2364848451465704   T   T   T
  0.1111111554345570  0.8888889442433907  0.0798214519428555   F   F   F
  0.1078801785574726  0.8891975487044590  0.2346774863360750   T   T   T
  0.4444445023215593  0.2222222216206760  0.0798214519428555   F   F   F
  0.4463888304009913  0.2272895532153427  0.2356681788576580   T   T   T
  0.4444445016618417  0.5555556118124798  0.0798214519428555   F   F   F
  0.4453507442933500  0.5563108306644864  0.2341147335982185   T   T   T
  0.4444445131441270  0.8888889442433907  0.0798214519428555   F   F   F
  0.4437534572476594  0.8840076917276392  0.2365302494125601   T   T   T
  0.7777777941022634  0.2222222216206760  0.0798214519428555   F   F   F
  0.7741644397044425  0.2209628538745960  0.2352264801087784   T   T   T
  0.7777778058957736  0.5555556118124798  0.0798214519428555   F   F   F
  0.7723187758124368  0.5508489659918610  0.2412783793619013   T   T   T
  0.7777778387265144  0.8888889442433907  0.0798214519428555   F   F   F
  0.7784379750152510  0.8838467929677023  0.2398606020171741   T   T   T
  0.0028647860974047  0.0000401244351451  0.3961145722682602   T   T   T
  0.3035058631099403  0.9724844084880857  0.4122754732176332   T   T   T
  0.8891010400466683  0.2153028261783234  0.4159987944388917   T   T   T
  0.6141121800712810  0.3059725657519152  0.3920645119390542   T   T   T
  0.6732536124016519  0.5914598738100736  0.3807329145287852   T   T   T
  0.3628768854729358  0.7072373347932484  0.3940294176681789   T   T   T
  0.9702897005052904  0.0722715931636913  0.4097772274149634   T   T   T
  0.0970191364734347  0.0077572910455430  0.4104792241582516   T   T   T
  0.3987825028984773  0.0810398096325500  0.4086118893168091   T   T   T
  0.2609264234073834  0.9406096685494632  0.3839181324811207   T   T   T
  0.9842061797312383  0.3235801770497915  0.4177114132874706   T   T   T
  0.8607610492593878  0.2038703733553291  0.3862391828629583   T   T   T
  0.6365044024588755  0.4274489376975481  0.3930889008304419   T   T   T
  0.6931705962696597  0.2975643735260078  0.4094894503383131   T   T   T
  0.7752323564465158  0.6656719049404387  0.3941371173216623   T   T   T
  0.4278782257428020  0.5491787546621509  0.3287127178262210   T   T   T
  0.3609999771266814  0.8007497142210411  0.4065988973199808   T   T   T
  0.4567541383095417  0.7031736706320615  0.4045709543269069   T   T   T
 
  0.00000000E+00  0.00000000E+00  0.00000000E+00
  0.00000000E+00  0.00000000E+00  0.00000000E+00
  0.00000000E+00  0.00000000E+00  0.00000000E+00
  0.00000000E+00  0.00000000E+00  0.00000000E+00
  0.00000000E+00  0.00000000E+00  0.00000000E+00
  0.00000000E+00  0.00000000E+00  0.00000000E+00
  0.00000000E+00  0.00000000E+00  0.00000000E+00
  0.00000000E+00  0.00000000E+00  0.00000000E+00
  0.00000000E+00  0.00000000E+00  0.00000000E+00
  0.00000000E+00  0.00000000E+00  0.00000000E+00
  0.00000000E+00  0.00000000E+00  0.00000000E+00
  0.00000000E+00  0.00000000E+00  0.00000000E+00
  0.00000000E+00  0.00000000E+00  0.00000000E+00
  0.00000000E+00  0.00000000E+00  0.00000000E+00
  0.00000000E+00  0.00000000E+00  0.00000000E+00
  0.00000000E+00  0.00000000E+00  0.00000000E+00
  0.00000000E+00  0.00000000E+00  0.00000000E+00
  0.00000000E+00  0.00000000E+00  0.00000000E+00
  0.00000000E+00  0.00000000E+00  0.00000000E+00
  0.00000000E+00  0.00000000E+00  0.00000000E+00
  0.00000000E+00  0.00000000E+00  0.00000000E+00
  0.00000000E+00  0.00000000E+00  0.00000000E+00
  0.00000000E+00  0.00000000E+00  0.00000000E+00
  0.00000000E+00  0.00000000E+00  0.00000000E+00
  0.00000000E+00  0.00000000E+00  0.00000000E+00
  0.00000000E+00  0.00000000E+00  0.00000000E+00
  0.00000000E+00  0.00000000E+00  0.00000000E+00
  0.00000000E+00  0.00000000E+00  0.00000000E+00
  0.00000000E+00  0.00000000E+00  0.00000000E+00
  0.00000000E+00  0.00000000E+00  0.00000000E+00
  0.00000000E+00  0.00000000E+00  0.00000000E+00
  0.00000000E+00  0.00000000E+00  0.00000000E+00
  0.00000000E+00  0.00000000E+00  0.00000000E+00
  0.00000000E+00  0.00000000E+00  0.00000000E+00
  0.00000000E+00  0.00000000E+00  0.00000000E+00
  0.00000000E+00  0.00000000E+00  0.00000000E+00
  0.00000000E+00  0.00000000E+00  0.00000000E+00
  0.00000000E+00  0.00000000E+00  0.00000000E+00
  0.00000000E+00  0.00000000E+00  0.00000000E+00
  0.00000000E+00  0.00000000E+00  0.00000000E+00
  0.00000000E+00  0.00000000E+00  0.00000000E+00
  0.00000000E+00  0.00000000E+00  0.00000000E+00
  0.00000000E+00  0.00000000E+00  0.00000000E+00
  0.00000000E+00  0.00000000E+00  0.00000000E+00
  0.00000000E+00  0.00000000E+00  0.00000000E+00
  0.00000000E+00  0.00000000E+00  0.00000000E+00
  0.00000000E+00  0.00000000E+00  0.00000000E+00
  0.00000000E+00  0.00000000E+00  0.00000000E+00
  0.00000000E+00  0.00000000E+00  0.00000000E+00
  0.00000000E+00  0.00000000E+00  0.00000000E+00
  0.00000000E+00  0.00000000E+00  0.00000000E+00
  0.00000000E+00  0.00000000E+00  0.00000000E+00
  0.00000000E+00  0.00000000E+00  0.00000000E+00
  0.00000000E+00  0.00000000E+00  0.00000000E+00
  0.00000000E+00  0.00000000E+00  0.00000000E+00
  0.00000000E+00  0.00000000E+00  0.00000000E+00
  0.00000000E+00  0.00000000E+00  0.00000000E+00
  0.00000000E+00  0.00000000E+00  0.00000000E+00
  0.00000000E+00  0.00000000E+00  0.00000000E+00
  0.00000000E+00  0.00000000E+00  0.00000000E+00
  0.00000000E+00  0.00000000E+00  0.00000000E+00
  0.00000000E+00  0.00000000E+00  0.00000000E+00
  0.00000000E+00  0.00000000E+00  0.00000000E+00
