Mg   O    H                             
   1.00000000000000     
     9.5557527542000003    0.0000000000000000    0.0000000000000000
    -4.7778763771000001    8.2755246374000002    0.0000000000000000
     0.0000000000000000    0.0000000000000000   32.6250953674000002
   Mg   O    H 
    45     6    12
Selective dynamics
Direct
  0.0000000000000000  0.0000000000000000  0.0000000000000000   F   F   F
  0.9988476481029966  0.9997332849123330  0.1582579847660269   T   T   T
  0.0032971148512825  0.0047103640468475  0.3305666031341579   T   T   T
  0.0000000098065698  0.3333333613114178  0.0000000000000000   F   F   F
  0.0001643201114414  0.3339743539022198  0.1575470404169555   T   T   T
  0.9918685448695803  0.3359446703916598  0.3121122459341673   T   T   T
  0.0000000196131396  0.6666667226228356  0.0000000000000000   F   F   F
  0.9987999102507363  0.6667515958995833  0.1579285542554492   T   T   T
  0.0077972648066216  0.6749310697401908  0.3137217762257676   T   T   T
  0.3333333416982782  0.0000000000000000  0.0000000000000000   F   F   F
  0.3330472071659904  0.9996931260045692  0.1572239645106312   T   T   T
  0.3288472515388782  0.0029674983485243  0.3085687530341178   T   T   T
  0.3333333515048480  0.3333333613114178  0.0000000000000000   F   F   F
  0.3316393826405862  0.3317162527219373  0.1569730404349466   T   T   T
  0.3210563219875728  0.3269276106695930  0.3116829809332525   T   T   T
  0.3333333597416868  0.6666667226228356  0.0000000000000000   F   F   F
  0.3322651663964127  0.6676431048999641  0.1579133834849718   T   T   T
  0.3240299437387087  0.6767246195672707  0.3297082134689799   T   T   T
  0.6666666832919077  0.0000000000000000  0.0000000000000000   F   F   F
  0.6662174577162229  0.9987789107199682  0.1577788812474494   T   T   T
  0.6713358134979385  0.0043405735372882  0.3133485270617022   T   T   T
  0.6666666806452426  0.3333333613114178  0.0000000000000000   F   F   F
  0.6668084455949662  0.3352240698576541  0.1588432107220052   T   T   T
  0.6602337047675865  0.3167127932456203  0.3281541672687665   T   T   T
  0.6666667030096960  0.6666667226228356  0.0000000000000000   F   F   F
  0.6690838955508069  0.6672819742749688  0.1585043604732445   T   T   T
  0.6639185586407610  0.6671098330545354  0.3246494050499789   T   T   T
  0.1111111284960415  0.2222222216206760  0.0798214519428555   F   F   F
  0.1060742358762375  0.2192907384170092  0.2362331578044542   T   T   T
  0.1111111350571008  0.5555556118124798  0.0798214519428555   F   F   F
  0.1157210081803011  0.5581817221002678  0.2364848451465683   T   T   T
  0.1111111554345570  0.8888889442433907  0.0798214519428555   F   F   F
  0.1078801785574700  0.8891975487044590  0.2346774863360736   T   T   T
  0.4444445023215593  0.2222222216206760  0.0798214519428555   F   F   F
  0.4463888304009896  0.2272895532153409  0.2356681788576595   T   T   T
  0.4444445016618417  0.5555556118124798  0.0798214519428555   F   F   F
  0.4453507442933484  0.5563108306644837  0.2341147335982209   T   T   T
  0.4444445131441270  0.8888889442433907  0.0798214519428555   F   F   F
  0.4437534572476626  0.8840076917276390  0.2365302494125610   T   T   T
  0.7777777941022634  0.2222222216206760  0.0798214519428555   F   F   F
  0.7741644397044452  0.2209628538745966  0.2352264801087814   T   T   T
  0.7777778058957736  0.5555556118124798  0.0798214519428555   F   F   F
  0.7723187758124346  0.5508489659918597  0.2412783793619002   T   T   T
  0.7777778387265144  0.8888889442433907  0.0798214519428555   F   F   F
  0.7784379750152541  0.8838467929677030  0.2398606020171746   T   T   T
  0.0028647860974051  0.0000401244351446  0.3961145722682602   T   T   T
  0.3035058631099433  0.9724844084880846  0.4122754732176367   T   T   T
  0.8891010400466716  0.2153028261783240  0.4159987944388933   T   T   T
  0.6141121800712789  0.3059725657519117  0.3920645119390546   T   T   T
  0.6732536124016503  0.5914598738100761  0.3807329145287874   T   T   T
  0.3628768854729325  0.7072373347932495  0.3940294176681766   T   T   T
  0.9702897005052876  0.0722715931636885  0.4097772274149664   T   T   T
  0.0970191364734336  0.0077572910455405  0.4104792241582539   T   T   T
  0.3987825028984793  0.0810398096325527  0.4086118893168110   T   T   T
  0.2609264234073847  0.9406096685494647  0.3839181324811188   T   T   T
  0.9842061797312397  0.3235801770497918  0.4177114132874696   T   T   T
  0.8607610492593863  0.2038703733553267  0.3862391828629602   T   T   T
  0.6365044024588778  0.4274489376975450  0.3930889008304406   T   T   T
  0.6931705962696627  0.2975643735260106  0.4094894503383111   T   T   T
  0.7752323564465129  0.6656719049404412  0.3941371173216621   T   T   T
  0.4278782257428007  0.5491787546621526  0.3287127178262192   T   T   T
  0.3609999771266820  0.8007497142210445  0.4065988973199793   T   T   T
  0.4567541383095426  0.7031736706320619  0.4045709543269103   T   T   T
 
  0.00000000E+00  0.00000000E+00  0.00000000E+00
  0.00000000E+00  0.00000000E+00  0.00000000E+00
  0.00000000E+00  0.00000000E+00  0.00000000E+00
  0.00000000E+00  0.00000000E+00  0.00000000E+00
  0.00000000E+00  0.00000000E+00  0.00000000E+00
  0.00000000E+00  0.00000000E+00  0.00000000E+00
  0.00000000E+00  0.00000000E+00  0.00000000E+00
  0.00000000E+00  0.00000000E+00  0.00000000E+00
  0.00000000E+00  0.00000000E+00  0.00000000E+00
  0.00000000E+00  0.00000000E+00  0.00000000E+00
  0.00000000E+00  0.00000000E+00  0.00000000E+00
  0.00000000E+00  0.00000000E+00  0.00000000E+00
  0.00000000E+00  0.00000000E+00  0.00000000E+00
  0.00000000E+00  0.00000000E+00  0.00000000E+00
  0.00000000E+00  0.00000000E+00  0.00000000E+00
  0.00000000E+00  0.00000000E+00  0.00000000E+00
  0.00000000E+00  0.00000000E+00  0.00000000E+00
  0.00000000E+00  0.00000000E+00  0.00000000E+00
  0.00000000E+00  0.00000000E+00  0.00000000E+00
  0.00000000E+00  0.00000000E+00  0.00000000E+00
  0.00000000E+00  0.00000000E+00  0.00000000E+00
  0.00000000E+00  0.00000000E+00  0.00000000E+00
  0.00000000E+00  0.00000000E+00  0.00000000E+00
  0.00000000E+00  0.00000000E+00  0.00000000E+00
  0.00000000E+00  0.00000000E+00  0.00000000E+00
  0.00000000E+00  0.00000000E+00  0.00000000E+00
  0.00000000E+00  0.00000000E+00  0.00000000E+00
  0.00000000E+00  0.00000000E+00  0.00000000E+00
  0.00000000E+00  0.00000000E+00  0.00000000E+00
  0.00000000E+00  0.00000000E+00  0.00000000E+00
  0.00000000E+00  0.00000000E+00  0.00000000E+00
  0.00000000E+00  0.00000000E+00  0.00000000E+00
  0.00000000E+00  0.00000000E+00  0.00000000E+00
  0.00000000E+00  0.00000000E+00  0.00000000E+00
  0.00000000E+00  0.00000000E+00  0.00000000E+00
  0.00000000E+00  0.00000000E+00  0.00000000E+00
  0.00000000E+00  0.00000000E+00  0.00000000E+00
  0.00000000E+00  0.00000000E+00  0.00000000E+00
  0.00000000E+00  0.00000000E+00  0.00000000E+00
  0.00000000E+00  0.00000000E+00  0.00000000E+00
  0.00000000E+00  0.00000000E+00  0.00000000E+00
  0.00000000E+00  0.00000000E+00  0.00000000E+00
  0.00000000E+00  0.00000000E+00  0.00000000E+00
  0.00000000E+00  0.00000000E+00  0.00000000E+00
  0.00000000E+00  0.00000000E+00  0.00000000E+00
  0.00000000E+00  0.00000000E+00  0.00000000E+00
  0.00000000E+00  0.00000000E+00  0.00000000E+00
  0.00000000E+00  0.00000000E+00  0.00000000E+00
  0.00000000E+00  0.00000000E+00  0.00000000E+00
  0.00000000E+00  0.00000000E+00  0.00000000E+00
  0.00000000E+00  0.00000000E+00  0.00000000E+00
  0.00000000E+00  0.00000000E+00  0.00000000E+00
  0.00000000E+00  0.00000000E+00  0.00000000E+00
  0.00000000E+00  0.00000000E+00  0.00000000E+00
  0.00000000E+00  0.00000000E+00  0.00000000E+00
  0.00000000E+00  0.00000000E+00  0.00000000E+00
  0.00000000E+00  0.00000000E+00  0.00000000E+00
  0.00000000E+00  0.00000000E+00  0.00000000E+00
  0.00000000E+00  0.00000000E+00  0.00000000E+00
  0.00000000E+00  0.00000000E+00  0.00000000E+00
  0.00000000E+00  0.00000000E+00  0.00000000E+00
  0.00000000E+00  0.00000000E+00  0.00000000E+00
  0.00000000E+00  0.00000000E+00  0.00000000E+00
