Mg   O    H                             
   1.00000000000000     
     9.5557527542000003    0.0000000000000000    0.0000000000000000
    -4.7778763771000001    8.2755246374000002    0.0000000000000000
     0.0000000000000000    0.0000000000000000   32.6250953674000002
   Mg   O    H 
    45     6    12
Selective dynamics
Direct
  0.0000000000000000  0.0000000000000000  0.0000000000000000   F   F   F
  0.9995351052709935  0.9994975826512658  0.1595610037887454   T   T   T
  0.0020455155433368  0.0065937326331422  0.3318837834347335   T   T   T
  0.0000000098065698  0.3333333613114178  0.0000000000000000   F   F   F
  0.0005301750787226  0.3344998775915826  0.1593214868860713   T   T   T
  0.9972010912750875  0.3306482620508504  0.3140281672981970   T   T   T
  0.0000000196131396  0.6666667226228356  0.0000000000000000   F   F   F
  0.0016208417792711  0.6677367215562739  0.1585718631904882   T   T   T
  0.0015589387677792  0.6664564260277857  0.3168235188278814   T   T   T
  0.3333333416982782  0.0000000000000000  0.0000000000000000   F   F   F
  0.3339016156859103  0.0003553916102277  0.1589101423467838   T   T   T
  0.3297743973240443  0.0003478126300180  0.3125492100700740   T   T   T
  0.3333333515048480  0.3333333613114178  0.0000000000000000   F   F   F
  0.3333412510472300  0.3323544721741953  0.1584730207571496   T   T   T
  0.3237141532754322  0.3254890632027809  0.3155598429269375   T   T   T
  0.3333333597416868  0.6666667226228356  0.0000000000000000   F   F   F
  0.3329553239234642  0.6675438502049573  0.1591140603041055   T   T   T
  0.3225004930512085  0.6656725310128948  0.3325656782789750   T   T   T
  0.6666666832919077  0.0000000000000000  0.0000000000000000   F   F   F
  0.6661739058909575  0.9994037014084896  0.1592517185931541   T   T   T
  0.6687770982548145  0.0014180980401264  0.3166021441794200   T   T   T
  0.6666666806452426  0.3333333613114178  0.0000000000000000   F   F   F
  0.6661451197027617  0.3333056448326346  0.1595438159774503   T   T   T
  0.6544260542567883  0.3150856716192507  0.3355148008011142   T   T   T
  0.6666667030096960  0.6666667226228356  0.0000000000000000   F   F   F
  0.6678112018284352  0.6682684981511500  0.1581392374563322   T   T   T
  0.6630887519115731  0.6715540374033040  0.3155187955076855   T   T   T
  0.1111111284960415  0.2222222216207186  0.0798214519428555   F   F   F
  0.1101341511149059  0.2202516293665440  0.2379134809430354   T   T   T
  0.1111111350571008  0.5555556118124798  0.0798214519428555   F   F   F
  0.1148528605449570  0.5578367919921519  0.2392453420336125   T   T   T
  0.1111111554346138  0.8888889442435541  0.0798214519428555   F   F   F
  0.1074221413178833  0.8887916503711821  0.2381992369942409   T   T   T
  0.4444445023215593  0.2222222216207186  0.0798214519428555   F   F   F
  0.4504531910209053  0.2290494942686792  0.2388403443274427   T   T   T
  0.4444445016618417  0.5555556118124798  0.0798214519428555   F   F   F
  0.4446167018325440  0.5553657956661908  0.2356542249338034   T   T   T
  0.4444445131441839  0.8888889442435541  0.0798214519428555   F   F   F
  0.4440464739729322  0.8834643590375535  0.2392195252572478   T   T   T
  0.7777777941022634  0.2222222216207186  0.0798214519428555   F   F   F
  0.7752839490525645  0.2242171392309160  0.2385884323087666   T   T   T
  0.7777778058957736  0.5555556118124798  0.0798214519428555   F   F   F
  0.7779126241521297  0.5552068569332107  0.2365662809034745   T   T   T
  0.7777778387265144  0.8888889442435541  0.0798214519428555   F   F   F
  0.7807759655534028  0.8902516277806427  0.2394711845606281   T   T   T
  0.9919622984538421  0.9820345665569334  0.3982033556510345   T   T   T
  0.2712576463206489  0.9381189783840398  0.4143285025542625   T   T   T
  0.8836788763622536  0.2137965798942218  0.4164497185394893   T   T   T
  0.6221424278585843  0.2612459324435150  0.4033781401892043   T   T   T
  0.7746042139116227  0.5640010031444831  0.3470161351197234   T   T   T
  0.3494110750719770  0.6945527826126821  0.3982054591111819   T   T   T
  0.9615566372863782  0.0533480933158117  0.4127805603513295   T   T   T
  0.0855651539024862  0.9864384497054957  0.4121755430634622   T   T   T
  0.3755413525864526  0.0391577596223556  0.4114968134062380   T   T   T
  0.2333288096676753  0.9109839188471582  0.3851424360095308   T   T   T
  0.9819716493697257  0.3192613744794670  0.4199329886218806   T   T   T
  0.8750341674576916  0.2008053605733480  0.3855990437888437   T   T   T
  0.6155649685588429  0.3383149011604303  0.4218985328115821   T   T   T
  0.7110793516261964  0.2443604030679154  0.4138354372253303   T   T   T
  0.7928370197316355  0.5961463150757353  0.3759925041313394   T   T   T
  0.4447241313427384  0.5460362744231304  0.3386382051311969   T   T   T
  0.3256421781296766  0.7779411274191119  0.4090249251134992   T   T   T
  0.4616688457621265  0.7307554506093297  0.4056619476141421   T   T   T
 
  0.00000000E+00  0.00000000E+00  0.00000000E+00
  0.00000000E+00  0.00000000E+00  0.00000000E+00
  0.00000000E+00  0.00000000E+00  0.00000000E+00
  0.00000000E+00  0.00000000E+00  0.00000000E+00
  0.00000000E+00  0.00000000E+00  0.00000000E+00
  0.00000000E+00  0.00000000E+00  0.00000000E+00
  0.00000000E+00  0.00000000E+00  0.00000000E+00
  0.00000000E+00  0.00000000E+00  0.00000000E+00
  0.00000000E+00  0.00000000E+00  0.00000000E+00
  0.00000000E+00  0.00000000E+00  0.00000000E+00
  0.00000000E+00  0.00000000E+00  0.00000000E+00
  0.00000000E+00  0.00000000E+00  0.00000000E+00
  0.00000000E+00  0.00000000E+00  0.00000000E+00
  0.00000000E+00  0.00000000E+00  0.00000000E+00
  0.00000000E+00  0.00000000E+00  0.00000000E+00
  0.00000000E+00  0.00000000E+00  0.00000000E+00
  0.00000000E+00  0.00000000E+00  0.00000000E+00
  0.00000000E+00  0.00000000E+00  0.00000000E+00
  0.00000000E+00  0.00000000E+00  0.00000000E+00
  0.00000000E+00  0.00000000E+00  0.00000000E+00
  0.00000000E+00  0.00000000E+00  0.00000000E+00
  0.00000000E+00  0.00000000E+00  0.00000000E+00
  0.00000000E+00  0.00000000E+00  0.00000000E+00
  0.00000000E+00  0.00000000E+00  0.00000000E+00
  0.00000000E+00  0.00000000E+00  0.00000000E+00
  0.00000000E+00  0.00000000E+00  0.00000000E+00
  0.00000000E+00  0.00000000E+00  0.00000000E+00
  0.00000000E+00  0.00000000E+00  0.00000000E+00
  0.00000000E+00  0.00000000E+00  0.00000000E+00
  0.00000000E+00  0.00000000E+00  0.00000000E+00
  0.00000000E+00  0.00000000E+00  0.00000000E+00
  0.00000000E+00  0.00000000E+00  0.00000000E+00
  0.00000000E+00  0.00000000E+00  0.00000000E+00
  0.00000000E+00  0.00000000E+00  0.00000000E+00
  0.00000000E+00  0.00000000E+00  0.00000000E+00
  0.00000000E+00  0.00000000E+00  0.00000000E+00
  0.00000000E+00  0.00000000E+00  0.00000000E+00
  0.00000000E+00  0.00000000E+00  0.00000000E+00
  0.00000000E+00  0.00000000E+00  0.00000000E+00
  0.00000000E+00  0.00000000E+00  0.00000000E+00
  0.00000000E+00  0.00000000E+00  0.00000000E+00
  0.00000000E+00  0.00000000E+00  0.00000000E+00
  0.00000000E+00  0.00000000E+00  0.00000000E+00
  0.00000000E+00  0.00000000E+00  0.00000000E+00
  0.00000000E+00  0.00000000E+00  0.00000000E+00
  0.00000000E+00  0.00000000E+00  0.00000000E+00
  0.00000000E+00  0.00000000E+00  0.00000000E+00
  0.00000000E+00  0.00000000E+00  0.00000000E+00
  0.00000000E+00  0.00000000E+00  0.00000000E+00
  0.00000000E+00  0.00000000E+00  0.00000000E+00
  0.00000000E+00  0.00000000E+00  0.00000000E+00
  0.00000000E+00  0.00000000E+00  0.00000000E+00
  0.00000000E+00  0.00000000E+00  0.00000000E+00
  0.00000000E+00  0.00000000E+00  0.00000000E+00
  0.00000000E+00  0.00000000E+00  0.00000000E+00
  0.00000000E+00  0.00000000E+00  0.00000000E+00
  0.00000000E+00  0.00000000E+00  0.00000000E+00
  0.00000000E+00  0.00000000E+00  0.00000000E+00
  0.00000000E+00  0.00000000E+00  0.00000000E+00
  0.00000000E+00  0.00000000E+00  0.00000000E+00
  0.00000000E+00  0.00000000E+00  0.00000000E+00
  0.00000000E+00  0.00000000E+00  0.00000000E+00
  0.00000000E+00  0.00000000E+00  0.00000000E+00
