Mg   O    H                             
   1.00000000000000     
     9.5557527542000003    0.0000000000000000    0.0000000000000000
    -4.7778763771000001    8.2755246374000002    0.0000000000000000
     0.0000000000000000    0.0000000000000000   32.6250953674000002
   Mg   O    H 
    45     6    12
Selective dynamics
Direct
  0.0000000000000000  0.0000000000000000  0.0000000000000000   F   F   F
  0.9988938721760121  0.0004546118316782  0.1582888370813080   T   T   T
  0.0025061747928277  0.0073808812446856  0.3303556432628554   T   T   T
  0.0000000098065698  0.3333333613114178  0.0000000000000000   F   F   F
  0.0002699216813369  0.3344817070210979  0.1575520789579983   T   T   T
  0.9901688602518988  0.3398411509783870  0.3123461583752274   T   T   T
  0.0000000196131396  0.6666667226228356  0.0000000000000000   F   F   F
  0.9992099953464049  0.6677592496408877  0.1579852642565456   T   T   T
  0.0122835311904055  0.6805901379634989  0.3130183013999002   T   T   T
  0.3333333416982782  0.0000000000000000  0.0000000000000000   F   F   F
  0.3333909673920417  0.0003844148136096  0.1572067446425010   T   T   T
  0.3333282685193595  0.0105260163470575  0.3089695041238798   T   T   T
  0.3333333515048480  0.3333333613114178  0.0000000000000000   F   F   F
  0.3315157097786852  0.3321613101960423  0.1570498361192847   T   T   T
  0.3196933752982645  0.3296555592042338  0.3118288654968993   T   T   T
  0.3333333597416868  0.6666667226228356  0.0000000000000000   F   F   F
  0.3326012980644180  0.6685277749780525  0.1578970797151840   T   T   T
  0.3250741150095635  0.6807620782060084  0.3296112016736075   T   T   T
  0.6666666832919077  0.0000000000000000  0.0000000000000000   F   F   F
  0.6660309831125488  0.9992119938372142  0.1578136083656432   T   T   T
  0.6714931706486880  0.0108230072720161  0.3137696009010043   T   T   T
  0.6666666806452426  0.3333333613114178  0.0000000000000000   F   F   F
  0.6668100862730171  0.3357893987942973  0.1587892984872425   T   T   T
  0.6651845791304467  0.3382824901864367  0.3317508988960540   T   T   T
  0.6666667030096960  0.6666667226228356  0.0000000000000000   F   F   F
  0.6694291955845131  0.6680437104430652  0.1582790512577787   T   T   T
  0.6613961942780193  0.6739522733538479  0.3214944632842034   T   T   T
  0.1111111284960415  0.2222222216206760  0.0798214519428555   F   F   F
  0.1056496900280877  0.2205864571269132  0.2364619832516652   T   T   T
  0.1111111350571008  0.5555556118124798  0.0798214519428555   F   F   F
  0.1164250718201600  0.5591102280560705  0.2363657019059602   T   T   T
  0.1111111554345570  0.8888889442433907  0.0798214519428555   F   F   F
  0.1095191793851455  0.8923097603228598  0.2348112004469058   T   T   T
  0.4444445023215593  0.2222222216206760  0.0798214519428555   F   F   F
  0.4474983780752737  0.2300217127747644  0.2357956101501202   T   T   T
  0.4444445016618417  0.5555556118124798  0.0798214519428555   F   F   F
  0.4464701931918427  0.5577637776962305  0.2339408481295351   T   T   T
  0.4444445131441270  0.8888889442433907  0.0798214519428555   F   F   F
  0.4436482545028397  0.8854624073038053  0.2369222632152699   T   T   T
  0.7777777941022634  0.2222222216206760  0.0798214519428555   F   F   F
  0.7740938970770941  0.2225481104536655  0.2352517618667633   T   T   T
  0.7777778058957736  0.5555556118124798  0.0798214519428555   F   F   F
  0.7742717858896953  0.5532490404771764  0.2405931792724090   T   T   T
  0.7777778387265144  0.8888889442433907  0.0798214519428555   F   F   F
  0.7787723932254806  0.8863193393558362  0.2396794671747671   T   T   T
  0.0023439145624806  0.0002577356311022  0.3961091536172887   T   T   T
  0.3013841103524513  0.9700503251129859  0.4124001724794297   T   T   T
  0.8866895101908696  0.2175099289384050  0.4160635799354964   T   T   T
  0.6068266149104247  0.2871651541839952  0.3967864658025988   T   T   T
  0.6841997112885210  0.5702467035193237  0.3722862969192491   T   T   T
  0.3589866129037986  0.7083930578575277  0.3943629033436835   T   T   T
  0.9696720461790420  0.0716350304692668  0.4100624329899816   T   T   T
  0.0963297728206598  0.0072647941236781  0.4104114407109378   T   T   T
  0.3984660352913707  0.0780915235329829  0.4094436564430666   T   T   T
  0.2601156505162479  0.9412287821973990  0.3838319820578064   T   T   T
  0.9835571480700978  0.3246205281677206  0.4178045879818626   T   T   T
  0.8619844159739003  0.2050444890574568  0.3860186706140141   T   T   T
  0.6292255963446749  0.4040912983624878  0.3969608502150450   T   T   T
  0.6930697602466012  0.2830808130030462  0.4121882422739418   T   T   T
  0.7821114029693561  0.6473054548137327  0.3869803785685590   T   T   T
  0.4270498605217696  0.5520730388379391  0.3292366741470190   T   T   T
  0.3553771638127756  0.8018769203026892  0.4065552744183734   T   T   T
  0.4544095141875033  0.7082340102401758  0.4051155842802743   T   T   T
 
  0.00000000E+00  0.00000000E+00  0.00000000E+00
  0.00000000E+00  0.00000000E+00  0.00000000E+00
  0.00000000E+00  0.00000000E+00  0.00000000E+00
  0.00000000E+00  0.00000000E+00  0.00000000E+00
  0.00000000E+00  0.00000000E+00  0.00000000E+00
  0.00000000E+00  0.00000000E+00  0.00000000E+00
  0.00000000E+00  0.00000000E+00  0.00000000E+00
  0.00000000E+00  0.00000000E+00  0.00000000E+00
  0.00000000E+00  0.00000000E+00  0.00000000E+00
  0.00000000E+00  0.00000000E+00  0.00000000E+00
  0.00000000E+00  0.00000000E+00  0.00000000E+00
  0.00000000E+00  0.00000000E+00  0.00000000E+00
  0.00000000E+00  0.00000000E+00  0.00000000E+00
  0.00000000E+00  0.00000000E+00  0.00000000E+00
  0.00000000E+00  0.00000000E+00  0.00000000E+00
  0.00000000E+00  0.00000000E+00  0.00000000E+00
  0.00000000E+00  0.00000000E+00  0.00000000E+00
  0.00000000E+00  0.00000000E+00  0.00000000E+00
  0.00000000E+00  0.00000000E+00  0.00000000E+00
  0.00000000E+00  0.00000000E+00  0.00000000E+00
  0.00000000E+00  0.00000000E+00  0.00000000E+00
  0.00000000E+00  0.00000000E+00  0.00000000E+00
  0.00000000E+00  0.00000000E+00  0.00000000E+00
  0.00000000E+00  0.00000000E+00  0.00000000E+00
  0.00000000E+00  0.00000000E+00  0.00000000E+00
  0.00000000E+00  0.00000000E+00  0.00000000E+00
  0.00000000E+00  0.00000000E+00  0.00000000E+00
  0.00000000E+00  0.00000000E+00  0.00000000E+00
  0.00000000E+00  0.00000000E+00  0.00000000E+00
  0.00000000E+00  0.00000000E+00  0.00000000E+00
  0.00000000E+00  0.00000000E+00  0.00000000E+00
  0.00000000E+00  0.00000000E+00  0.00000000E+00
  0.00000000E+00  0.00000000E+00  0.00000000E+00
  0.00000000E+00  0.00000000E+00  0.00000000E+00
  0.00000000E+00  0.00000000E+00  0.00000000E+00
  0.00000000E+00  0.00000000E+00  0.00000000E+00
  0.00000000E+00  0.00000000E+00  0.00000000E+00
  0.00000000E+00  0.00000000E+00  0.00000000E+00
  0.00000000E+00  0.00000000E+00  0.00000000E+00
  0.00000000E+00  0.00000000E+00  0.00000000E+00
  0.00000000E+00  0.00000000E+00  0.00000000E+00
  0.00000000E+00  0.00000000E+00  0.00000000E+00
  0.00000000E+00  0.00000000E+00  0.00000000E+00
  0.00000000E+00  0.00000000E+00  0.00000000E+00
  0.00000000E+00  0.00000000E+00  0.00000000E+00
  0.00000000E+00  0.00000000E+00  0.00000000E+00
  0.00000000E+00  0.00000000E+00  0.00000000E+00
  0.00000000E+00  0.00000000E+00  0.00000000E+00
  0.00000000E+00  0.00000000E+00  0.00000000E+00
  0.00000000E+00  0.00000000E+00  0.00000000E+00
  0.00000000E+00  0.00000000E+00  0.00000000E+00
  0.00000000E+00  0.00000000E+00  0.00000000E+00
  0.00000000E+00  0.00000000E+00  0.00000000E+00
  0.00000000E+00  0.00000000E+00  0.00000000E+00
  0.00000000E+00  0.00000000E+00  0.00000000E+00
  0.00000000E+00  0.00000000E+00  0.00000000E+00
  0.00000000E+00  0.00000000E+00  0.00000000E+00
  0.00000000E+00  0.00000000E+00  0.00000000E+00
  0.00000000E+00  0.00000000E+00  0.00000000E+00
  0.00000000E+00  0.00000000E+00  0.00000000E+00
  0.00000000E+00  0.00000000E+00  0.00000000E+00
  0.00000000E+00  0.00000000E+00  0.00000000E+00
  0.00000000E+00  0.00000000E+00  0.00000000E+00
