Mg   O    H                             
   1.00000000000000     
     9.5557527542000003    0.0000000000000000    0.0000000000000000
    -4.7778763771000001    8.2755246374000002    0.0000000000000000
     0.0000000000000000    0.0000000000000000   32.6250953674000002
   Mg   O    H 
    45     6    12
Selective dynamics
Direct
  0.0000000000000000  0.0000000000000000  0.0000000000000000   F   F   F
  0.9988938721760089  0.0004546118316767  0.1582888370813076   T   T   T
  0.0025061747928279  0.0073808812446888  0.3303556432628588   T   T   T
  0.0000000098065698  0.3333333613114178  0.0000000000000000   F   F   F
  0.0002699216813399  0.3344817070211009  0.1575520789579983   T   T   T
  0.9901688602519009  0.3398411509783880  0.3123461583752305   T   T   T
  0.0000000196131396  0.6666667226228356  0.0000000000000000   F   F   F
  0.9992099953464021  0.6677592496408908  0.1579852642565439   T   T   T
  0.0122835311904057  0.6805901379635011  0.3130183013998994   T   T   T
  0.3333333416982782  0.0000000000000000  0.0000000000000000   F   F   F
  0.3333909673920423  0.0003844148136082  0.1572067446425028   T   T   T
  0.3333282685193569  0.0105260163470573  0.3089695041238824   T   T   T
  0.3333333515048480  0.3333333613114178  0.0000000000000000   F   F   F
  0.3315157097786863  0.3321613101960449  0.1570498361192861   T   T   T
  0.3196933752982641  0.3296555592042327  0.3118288654968965   T   T   T
  0.3333333597416868  0.6666667226228356  0.0000000000000000   F   F   F
  0.3326012980644187  0.6685277749780552  0.1578970797151854   T   T   T
  0.3250741150095621  0.6807620782060055  0.3296112016736049   T   T   T
  0.6666666832919077  0.0000000000000000  0.0000000000000000   F   F   F
  0.6660309831125479  0.9992119938372148  0.1578136083656436   T   T   T
  0.6714931706486849  0.0108230072720185  0.3137696009010039   T   T   T
  0.6666666806452426  0.3333333613114178  0.0000000000000000   F   F   F
  0.6668100862730196  0.3357893987942963  0.1587892984872451   T   T   T
  0.6651845791304449  0.3382824901864400  0.3317508988960542   T   T   T
  0.6666667030096960  0.6666667226228356  0.0000000000000000   F   F   F
  0.6694291955845100  0.6680437104430662  0.1582790512577811   T   T   T
  0.6613961942780211  0.6739522733538504  0.3214944632842001   T   T   T
  0.1111111284960415  0.2222222216206760  0.0798214519428555   F   F   F
  0.1056496900280912  0.2205864571269106  0.2364619832516617   T   T   T
  0.1111111350571008  0.5555556118124798  0.0798214519428555   F   F   F
  0.1164250718201580  0.5591102280560729  0.2363657019059635   T   T   T
  0.1111111554345570  0.8888889442433907  0.0798214519428555   F   F   F
  0.1095191793851457  0.8923097603228572  0.2348112004469040   T   T   T
  0.4444445023215593  0.2222222216206760  0.0798214519428555   F   F   F
  0.4474983780752770  0.2300217127747610  0.2357956101501182   T   T   T
  0.4444445016618417  0.5555556118124798  0.0798214519428555   F   F   F
  0.4464701931918397  0.5577637776962321  0.2339408481295357   T   T   T
  0.4444445131441270  0.8888889442433907  0.0798214519428555   F   F   F
  0.4436482545028416  0.8854624073038059  0.2369222632152680   T   T   T
  0.7777777941022634  0.2222222216206760  0.0798214519428555   F   F   F
  0.7740938970770938  0.2225481104536624  0.2352517618667600   T   T   T
  0.7777778058957736  0.5555556118124798  0.0798214519428555   F   F   F
  0.7742717858896943  0.5532490404771750  0.2405931792724061   T   T   T
  0.7777778387265144  0.8888889442433907  0.0798214519428555   F   F   F
  0.7787723932254829  0.8863193393558378  0.2396794671747705   T   T   T
  0.0023439145624773  0.0002577356311039  0.3961091536172897   T   T   T
  0.3013841103524486  0.9700503251129878  0.4124001724794328   T   T   T
  0.8866895101908669  0.2175099289384045  0.4160635799354937   T   T   T
  0.6068266149104227  0.2871651541839967  0.3967864658025961   T   T   T
  0.6841997112885232  0.5702467035193216  0.3722862969192514   T   T   T
  0.3589866129038016  0.7083930578575269  0.3943629033436830   T   T   T
  0.9696720461790413  0.0716350304692703  0.4100624329899823   T   T   T
  0.0963297728206610  0.0072647941236773  0.4104114407109372   T   T   T
  0.3984660352913716  0.0780915235329808  0.4094436564430655   T   T   T
  0.2601156505162473  0.9412287821973964  0.3838319820578047   T   T   T
  0.9835571480700984  0.3246205281677174  0.4178045879818608   T   T   T
  0.8619844159738989  0.2050444890574533  0.3860186706140155   T   T   T
  0.6292255963446739  0.4040912983624870  0.3969608502150451   T   T   T
  0.6930697602465989  0.2830808130030456  0.4121882422739440   T   T   T
  0.7821114029693557  0.6473054548137335  0.3869803785685584   T   T   T
  0.4270498605217706  0.5520730388379386  0.3292366741470164   T   T   T
  0.3553771638127780  0.8018769203026882  0.4065552744183721   T   T   T
  0.4544095141875067  0.7082340102401756  0.4051155842802758   T   T   T
 
  0.00000000E+00  0.00000000E+00  0.00000000E+00
  0.00000000E+00  0.00000000E+00  0.00000000E+00
  0.00000000E+00  0.00000000E+00  0.00000000E+00
  0.00000000E+00  0.00000000E+00  0.00000000E+00
  0.00000000E+00  0.00000000E+00  0.00000000E+00
  0.00000000E+00  0.00000000E+00  0.00000000E+00
  0.00000000E+00  0.00000000E+00  0.00000000E+00
  0.00000000E+00  0.00000000E+00  0.00000000E+00
  0.00000000E+00  0.00000000E+00  0.00000000E+00
  0.00000000E+00  0.00000000E+00  0.00000000E+00
  0.00000000E+00  0.00000000E+00  0.00000000E+00
  0.00000000E+00  0.00000000E+00  0.00000000E+00
  0.00000000E+00  0.00000000E+00  0.00000000E+00
  0.00000000E+00  0.00000000E+00  0.00000000E+00
  0.00000000E+00  0.00000000E+00  0.00000000E+00
  0.00000000E+00  0.00000000E+00  0.00000000E+00
  0.00000000E+00  0.00000000E+00  0.00000000E+00
  0.00000000E+00  0.00000000E+00  0.00000000E+00
  0.00000000E+00  0.00000000E+00  0.00000000E+00
  0.00000000E+00  0.00000000E+00  0.00000000E+00
  0.00000000E+00  0.00000000E+00  0.00000000E+00
  0.00000000E+00  0.00000000E+00  0.00000000E+00
  0.00000000E+00  0.00000000E+00  0.00000000E+00
  0.00000000E+00  0.00000000E+00  0.00000000E+00
  0.00000000E+00  0.00000000E+00  0.00000000E+00
  0.00000000E+00  0.00000000E+00  0.00000000E+00
  0.00000000E+00  0.00000000E+00  0.00000000E+00
  0.00000000E+00  0.00000000E+00  0.00000000E+00
  0.00000000E+00  0.00000000E+00  0.00000000E+00
  0.00000000E+00  0.00000000E+00  0.00000000E+00
  0.00000000E+00  0.00000000E+00  0.00000000E+00
  0.00000000E+00  0.00000000E+00  0.00000000E+00
  0.00000000E+00  0.00000000E+00  0.00000000E+00
  0.00000000E+00  0.00000000E+00  0.00000000E+00
  0.00000000E+00  0.00000000E+00  0.00000000E+00
  0.00000000E+00  0.00000000E+00  0.00000000E+00
  0.00000000E+00  0.00000000E+00  0.00000000E+00
  0.00000000E+00  0.00000000E+00  0.00000000E+00
  0.00000000E+00  0.00000000E+00  0.00000000E+00
  0.00000000E+00  0.00000000E+00  0.00000000E+00
  0.00000000E+00  0.00000000E+00  0.00000000E+00
  0.00000000E+00  0.00000000E+00  0.00000000E+00
  0.00000000E+00  0.00000000E+00  0.00000000E+00
  0.00000000E+00  0.00000000E+00  0.00000000E+00
  0.00000000E+00  0.00000000E+00  0.00000000E+00
  0.00000000E+00  0.00000000E+00  0.00000000E+00
  0.00000000E+00  0.00000000E+00  0.00000000E+00
  0.00000000E+00  0.00000000E+00  0.00000000E+00
  0.00000000E+00  0.00000000E+00  0.00000000E+00
  0.00000000E+00  0.00000000E+00  0.00000000E+00
  0.00000000E+00  0.00000000E+00  0.00000000E+00
  0.00000000E+00  0.00000000E+00  0.00000000E+00
  0.00000000E+00  0.00000000E+00  0.00000000E+00
  0.00000000E+00  0.00000000E+00  0.00000000E+00
  0.00000000E+00  0.00000000E+00  0.00000000E+00
  0.00000000E+00  0.00000000E+00  0.00000000E+00
  0.00000000E+00  0.00000000E+00  0.00000000E+00
  0.00000000E+00  0.00000000E+00  0.00000000E+00
  0.00000000E+00  0.00000000E+00  0.00000000E+00
  0.00000000E+00  0.00000000E+00  0.00000000E+00
  0.00000000E+00  0.00000000E+00  0.00000000E+00
  0.00000000E+00  0.00000000E+00  0.00000000E+00
  0.00000000E+00  0.00000000E+00  0.00000000E+00
