Mg   O    H                             
   1.00000000000000     
     9.5557527542000003    0.0000000000000000    0.0000000000000000
    -4.7778763771000001    8.2755246374000002    0.0000000000000000
     0.0000000000000000    0.0000000000000000   32.6250953674000002
   Mg   O    H 
    45     6    12
Selective dynamics
Direct
  0.0000000000000000  0.0000000000000000  0.0000000000000000   F   F   F
  0.9995467865894625  0.9995475232772435  0.1579529074878110   T   T   T
  0.0040615415564034  0.0046588144216955  0.3301075582572821   T   T   T
  0.0000000098065698  0.3333333613114178  0.0000000000000000   F   F   F
  0.0006105781083221  0.3326998340468137  0.1574735896990092   T   T   T
  0.9936159673315643  0.3314071341584182  0.3097293097258529   T   T   T
  0.0000000196131396  0.6666667226228356  0.0000000000000000   F   F   F
  0.9990968689438091  0.6652600639283150  0.1574249795999521   T   T   T
  0.0073375246168439  0.6708073787712294  0.3133375899794544   T   T   T
  0.3333333416982782  0.0000000000000000  0.0000000000000000   F   F   F
  0.3339182749931595  0.9999864705095334  0.1569697165036956   T   T   T
  0.3277685202284388  0.9971431568407283  0.3084187171355168   T   T   T
  0.3333333515048480  0.3333333613114178  0.0000000000000000   F   F   F
  0.3332435920545862  0.3327749598358949  0.1577988626277573   T   T   T
  0.3265409831542740  0.3360813202303916  0.3153935411987518   T   T   T
  0.3333333597416868  0.6666667226228356  0.0000000000000000   F   F   F
  0.3332353853932517  0.6665168945217701  0.1582564492876557   T   T   T
  0.3262337919850395  0.6602729723773422  0.3332077648729026   T   T   T
  0.6666666832919077  0.0000000000000000  0.0000000000000000   F   F   F
  0.6668662625133308  0.9984463476533278  0.1573114683219430   T   T   T
  0.6655510123038368  0.9961835264932901  0.3128865801356469   T   T   T
  0.6666666806452426  0.3333333613114178  0.0000000000000000   F   F   F
  0.6666278226091507  0.3334691552794737  0.1586322332158900   T   T   T
  0.6620637533184777  0.3150490776764769  0.3239071322271414   T   T   T
  0.6666667030096960  0.6666667226228356  0.0000000000000000   F   F   F
  0.6684068034796198  0.6663989902211114  0.1588021139958826   T   T   T
  0.6715295559775925  0.6672815409339492  0.3225276978549019   T   T   T
  0.1111111284960415  0.2222222216206760  0.0798214519428555   F   F   F
  0.1117849496678289  0.2185472505161670  0.2366343525236232   T   T   T
  0.1111111350571008  0.5555556118124798  0.0798214519428555   F   F   F
  0.1167877469712835  0.5577613568164708  0.2360029174312572   T   T   T
  0.1111111554345570  0.8888889442433907  0.0798214519428555   F   F   F
  0.1087066973068360  0.8863676213363192  0.2339536087109124   T   T   T
  0.4444445023215593  0.2222222216206760  0.0798214519428555   F   F   F
  0.4470577195268461  0.2266099463739124  0.2365453255391188   T   T   T
  0.4444445016618417  0.5555556118124798  0.0798214519428555   F   F   F
  0.4470873694414692  0.5584040065620428  0.2367674795673196   T   T   T
  0.4444445131441270  0.8888889442433907  0.0798214519428555   F   F   F
  0.4441292979774687  0.8846040952118415  0.2354666584613128   T   T   T
  0.7777777941022634  0.2222222216206760  0.0798214519428555   F   F   F
  0.7743097246584654  0.2187225438517970  0.2345590571779397   T   T   T
  0.7777778058957736  0.5555556118124798  0.0798214519428555   F   F   F
  0.7751302573654044  0.5501643302733541  0.2397220854990252   T   T   T
  0.7777778387265144  0.8888889442433907  0.0798214519428555   F   F   F
  0.7817441372727316  0.8865711201373756  0.2386341515447299   T   T   T
  0.9958116776352384  0.0134467983140212  0.3955892217569570   T   T   T
  0.2789459484449779  0.9713526698573816  0.4118262541539650   T   T   T
  0.8974351825305220  0.2485025980218794  0.4114387701573392   T   T   T
  0.6357591420716560  0.3281542368528179  0.3878718657493749   T   T   T
  0.6556156625227061  0.6028115999391446  0.3807423194982746   T   T   T
  0.3012802416145490  0.6925462125833732  0.3973117915191438   T   T   T
  0.9719474824713430  0.0936416068499355  0.4080534010753283   T   T   T
  0.0815986314448764  0.0102818956650879  0.4114769942664935   T   T   T
  0.3825633108893527  0.0736276807697394  0.4117662524294587   T   T   T
  0.2465289728159235  0.9575541338230025  0.3822650391643236   T   T   T
  0.9943140890048241  0.3552917150677075  0.4084509639840590   T   T   T
  0.8618951941449424  0.2173791291790010  0.3823729751957430   T   T   T
  0.6438835752171670  0.4407742907689851  0.3919896492207045   T   T   T
  0.7204182315250094  0.3242511642211809  0.4040620142929612   T   T   T
  0.6517274098377044  0.6784380751510355  0.4000187524157539   T   T   T
  0.4330876390700666  0.5345133338007670  0.3484780685834323   T   T   T
  0.3001399882342994  0.7911659072176533  0.4068523620145115   T   T   T
  0.3623179350792327  0.6682943450242149  0.4172248899969162   T   T   T
 
  0.00000000E+00  0.00000000E+00  0.00000000E+00
  0.00000000E+00  0.00000000E+00  0.00000000E+00
  0.00000000E+00  0.00000000E+00  0.00000000E+00
  0.00000000E+00  0.00000000E+00  0.00000000E+00
  0.00000000E+00  0.00000000E+00  0.00000000E+00
  0.00000000E+00  0.00000000E+00  0.00000000E+00
  0.00000000E+00  0.00000000E+00  0.00000000E+00
  0.00000000E+00  0.00000000E+00  0.00000000E+00
  0.00000000E+00  0.00000000E+00  0.00000000E+00
  0.00000000E+00  0.00000000E+00  0.00000000E+00
  0.00000000E+00  0.00000000E+00  0.00000000E+00
  0.00000000E+00  0.00000000E+00  0.00000000E+00
  0.00000000E+00  0.00000000E+00  0.00000000E+00
  0.00000000E+00  0.00000000E+00  0.00000000E+00
  0.00000000E+00  0.00000000E+00  0.00000000E+00
  0.00000000E+00  0.00000000E+00  0.00000000E+00
  0.00000000E+00  0.00000000E+00  0.00000000E+00
  0.00000000E+00  0.00000000E+00  0.00000000E+00
  0.00000000E+00  0.00000000E+00  0.00000000E+00
  0.00000000E+00  0.00000000E+00  0.00000000E+00
  0.00000000E+00  0.00000000E+00  0.00000000E+00
  0.00000000E+00  0.00000000E+00  0.00000000E+00
  0.00000000E+00  0.00000000E+00  0.00000000E+00
  0.00000000E+00  0.00000000E+00  0.00000000E+00
  0.00000000E+00  0.00000000E+00  0.00000000E+00
  0.00000000E+00  0.00000000E+00  0.00000000E+00
  0.00000000E+00  0.00000000E+00  0.00000000E+00
  0.00000000E+00  0.00000000E+00  0.00000000E+00
  0.00000000E+00  0.00000000E+00  0.00000000E+00
  0.00000000E+00  0.00000000E+00  0.00000000E+00
  0.00000000E+00  0.00000000E+00  0.00000000E+00
  0.00000000E+00  0.00000000E+00  0.00000000E+00
  0.00000000E+00  0.00000000E+00  0.00000000E+00
  0.00000000E+00  0.00000000E+00  0.00000000E+00
  0.00000000E+00  0.00000000E+00  0.00000000E+00
  0.00000000E+00  0.00000000E+00  0.00000000E+00
  0.00000000E+00  0.00000000E+00  0.00000000E+00
  0.00000000E+00  0.00000000E+00  0.00000000E+00
  0.00000000E+00  0.00000000E+00  0.00000000E+00
  0.00000000E+00  0.00000000E+00  0.00000000E+00
  0.00000000E+00  0.00000000E+00  0.00000000E+00
  0.00000000E+00  0.00000000E+00  0.00000000E+00
  0.00000000E+00  0.00000000E+00  0.00000000E+00
  0.00000000E+00  0.00000000E+00  0.00000000E+00
  0.00000000E+00  0.00000000E+00  0.00000000E+00
  0.00000000E+00  0.00000000E+00  0.00000000E+00
  0.00000000E+00  0.00000000E+00  0.00000000E+00
  0.00000000E+00  0.00000000E+00  0.00000000E+00
  0.00000000E+00  0.00000000E+00  0.00000000E+00
  0.00000000E+00  0.00000000E+00  0.00000000E+00
  0.00000000E+00  0.00000000E+00  0.00000000E+00
  0.00000000E+00  0.00000000E+00  0.00000000E+00
  0.00000000E+00  0.00000000E+00  0.00000000E+00
  0.00000000E+00  0.00000000E+00  0.00000000E+00
  0.00000000E+00  0.00000000E+00  0.00000000E+00
  0.00000000E+00  0.00000000E+00  0.00000000E+00
  0.00000000E+00  0.00000000E+00  0.00000000E+00
  0.00000000E+00  0.00000000E+00  0.00000000E+00
  0.00000000E+00  0.00000000E+00  0.00000000E+00
  0.00000000E+00  0.00000000E+00  0.00000000E+00
  0.00000000E+00  0.00000000E+00  0.00000000E+00
  0.00000000E+00  0.00000000E+00  0.00000000E+00
  0.00000000E+00  0.00000000E+00  0.00000000E+00
