Mg   O    H                             
   1.00000000000000     
     9.5557527542000003    0.0000000000000000    0.0000000000000000
    -4.7778763771000001    8.2755246374000002    0.0000000000000000
     0.0000000000000000    0.0000000000000000   32.6250953674000002
   Mg   O    H 
    45     6    12
Selective dynamics
Direct
  0.0000000000000000  0.0000000000000000  0.0000000000000000   F   F   F
  0.9995467865894626  0.9995475232772415  0.1579529074878079   T   T   T
  0.0040615415564007  0.0046588144216947  0.3301075582572807   T   T   T
  0.0000000098065698  0.3333333613114178  0.0000000000000000   F   F   F
  0.0006105781083231  0.3326998340468137  0.1574735896990059   T   T   T
  0.9936159673315679  0.3314071341584149  0.3097293097258498   T   T   T
  0.0000000196131396  0.6666667226228356  0.0000000000000000   F   F   F
  0.9990968689438070  0.6652600639283156  0.1574249795999494   T   T   T
  0.0073375246168411  0.6708073787712271  0.3133375899794557   T   T   T
  0.3333333416982782  0.0000000000000000  0.0000000000000000   F   F   F
  0.3339182749931587  0.9999864705095304  0.1569697165036938   T   T   T
  0.3277685202284356  0.9971431568407277  0.3084187171355185   T   T   T
  0.3333333515048480  0.3333333613114178  0.0000000000000000   F   F   F
  0.3332435920545868  0.3327749598358948  0.1577988626277575   T   T   T
  0.3265409831542747  0.3360813202303938  0.3153935411987522   T   T   T
  0.3333333597416868  0.6666667226228356  0.0000000000000000   F   F   F
  0.3332353853932528  0.6665168945217682  0.1582564492876591   T   T   T
  0.3262337919850367  0.6602729723773442  0.3332077648729031   T   T   T
  0.6666666832919077  0.0000000000000000  0.0000000000000000   F   F   F
  0.6668662625133314  0.9984463476533301  0.1573114683219411   T   T   T
  0.6655510123038392  0.9961835264932890  0.3128865801356493   T   T   T
  0.6666666806452426  0.3333333613114178  0.0000000000000000   F   F   F
  0.6666278226091492  0.3334691552794747  0.1586322332158890   T   T   T
  0.6620637533184806  0.3150490776764772  0.3239071322271381   T   T   T
  0.6666667030096960  0.6666667226228356  0.0000000000000000   F   F   F
  0.6684068034796228  0.6663989902211098  0.1588021139958853   T   T   T
  0.6715295559775929  0.6672815409339508  0.3225276978549010   T   T   T
  0.1111111284960415  0.2222222216206760  0.0798214519428555   F   F   F
  0.1117849496678312  0.2185472505161661  0.2366343525236229   T   T   T
  0.1111111350571008  0.5555556118124798  0.0798214519428555   F   F   F
  0.1167877469712855  0.5577613568164703  0.2360029174312578   T   T   T
  0.1111111554345570  0.8888889442433907  0.0798214519428555   F   F   F
  0.1087066973068380  0.8863676213363211  0.2339536087109093   T   T   T
  0.4444445023215593  0.2222222216206760  0.0798214519428555   F   F   F
  0.4470577195268449  0.2266099463739142  0.2365453255391203   T   T   T
  0.4444445016618417  0.5555556118124798  0.0798214519428555   F   F   F
  0.4470873694414669  0.5584040065620454  0.2367674795673229   T   T   T
  0.4444445131441270  0.8888889442433907  0.0798214519428555   F   F   F
  0.4441292979774669  0.8846040952118449  0.2354666584613160   T   T   T
  0.7777777941022634  0.2222222216206760  0.0798214519428555   F   F   F
  0.7743097246584679  0.2187225438517990  0.2345590571779373   T   T   T
  0.7777778058957736  0.5555556118124798  0.0798214519428555   F   F   F
  0.7751302573654012  0.5501643302733562  0.2397220854990235   T   T   T
  0.7777778387265144  0.8888889442433907  0.0798214519428555   F   F   F
  0.7817441372727340  0.8865711201373762  0.2386341515447266   T   T   T
  0.9958116776352385  0.0134467983140202  0.3955892217569535   T   T   T
  0.2789459484449782  0.9713526698573810  0.4118262541539648   T   T   T
  0.8974351825305213  0.2485025980218791  0.4114387701573423   T   T   T
  0.6357591420716580  0.3281542368528207  0.3878718657493768   T   T   T
  0.6556156625227041  0.6028115999391445  0.3807423194982745   T   T   T
  0.3012802416145499  0.6925462125833752  0.3973117915191459   T   T   T
  0.9719474824713442  0.0936416068499325  0.4080534010753271   T   T   T
  0.0815986314448748  0.0102818956650873  0.4114769942664929   T   T   T
  0.3825633108893524  0.0736276807697362  0.4117662524294555   T   T   T
  0.2465289728159205  0.9575541338229990  0.3822650391643235   T   T   T
  0.9943140890048235  0.3552917150677047  0.4084509639840588   T   T   T
  0.8618951941449422  0.2173791291790015  0.3823729751957437   T   T   T
  0.6438835752171689  0.4407742907689884  0.3919896492207073   T   T   T
  0.7204182315250081  0.3242511642211811  0.4040620142929582   T   T   T
  0.6517274098377042  0.6784380751510324  0.4000187524157545   T   T   T
  0.4330876390700675  0.5345133338007688  0.3484780685834342   T   T   T
  0.3001399882342978  0.7911659072176539  0.4068523620145096   T   T   T
  0.3623179350792293  0.6682943450242139  0.4172248899969189   T   T   T
 
  0.00000000E+00  0.00000000E+00  0.00000000E+00
  0.00000000E+00  0.00000000E+00  0.00000000E+00
  0.00000000E+00  0.00000000E+00  0.00000000E+00
  0.00000000E+00  0.00000000E+00  0.00000000E+00
  0.00000000E+00  0.00000000E+00  0.00000000E+00
  0.00000000E+00  0.00000000E+00  0.00000000E+00
  0.00000000E+00  0.00000000E+00  0.00000000E+00
  0.00000000E+00  0.00000000E+00  0.00000000E+00
  0.00000000E+00  0.00000000E+00  0.00000000E+00
  0.00000000E+00  0.00000000E+00  0.00000000E+00
  0.00000000E+00  0.00000000E+00  0.00000000E+00
  0.00000000E+00  0.00000000E+00  0.00000000E+00
  0.00000000E+00  0.00000000E+00  0.00000000E+00
  0.00000000E+00  0.00000000E+00  0.00000000E+00
  0.00000000E+00  0.00000000E+00  0.00000000E+00
  0.00000000E+00  0.00000000E+00  0.00000000E+00
  0.00000000E+00  0.00000000E+00  0.00000000E+00
  0.00000000E+00  0.00000000E+00  0.00000000E+00
  0.00000000E+00  0.00000000E+00  0.00000000E+00
  0.00000000E+00  0.00000000E+00  0.00000000E+00
  0.00000000E+00  0.00000000E+00  0.00000000E+00
  0.00000000E+00  0.00000000E+00  0.00000000E+00
  0.00000000E+00  0.00000000E+00  0.00000000E+00
  0.00000000E+00  0.00000000E+00  0.00000000E+00
  0.00000000E+00  0.00000000E+00  0.00000000E+00
  0.00000000E+00  0.00000000E+00  0.00000000E+00
  0.00000000E+00  0.00000000E+00  0.00000000E+00
  0.00000000E+00  0.00000000E+00  0.00000000E+00
  0.00000000E+00  0.00000000E+00  0.00000000E+00
  0.00000000E+00  0.00000000E+00  0.00000000E+00
  0.00000000E+00  0.00000000E+00  0.00000000E+00
  0.00000000E+00  0.00000000E+00  0.00000000E+00
  0.00000000E+00  0.00000000E+00  0.00000000E+00
  0.00000000E+00  0.00000000E+00  0.00000000E+00
  0.00000000E+00  0.00000000E+00  0.00000000E+00
  0.00000000E+00  0.00000000E+00  0.00000000E+00
  0.00000000E+00  0.00000000E+00  0.00000000E+00
  0.00000000E+00  0.00000000E+00  0.00000000E+00
  0.00000000E+00  0.00000000E+00  0.00000000E+00
  0.00000000E+00  0.00000000E+00  0.00000000E+00
  0.00000000E+00  0.00000000E+00  0.00000000E+00
  0.00000000E+00  0.00000000E+00  0.00000000E+00
  0.00000000E+00  0.00000000E+00  0.00000000E+00
  0.00000000E+00  0.00000000E+00  0.00000000E+00
  0.00000000E+00  0.00000000E+00  0.00000000E+00
  0.00000000E+00  0.00000000E+00  0.00000000E+00
  0.00000000E+00  0.00000000E+00  0.00000000E+00
  0.00000000E+00  0.00000000E+00  0.00000000E+00
  0.00000000E+00  0.00000000E+00  0.00000000E+00
  0.00000000E+00  0.00000000E+00  0.00000000E+00
  0.00000000E+00  0.00000000E+00  0.00000000E+00
  0.00000000E+00  0.00000000E+00  0.00000000E+00
  0.00000000E+00  0.00000000E+00  0.00000000E+00
  0.00000000E+00  0.00000000E+00  0.00000000E+00
  0.00000000E+00  0.00000000E+00  0.00000000E+00
  0.00000000E+00  0.00000000E+00  0.00000000E+00
  0.00000000E+00  0.00000000E+00  0.00000000E+00
  0.00000000E+00  0.00000000E+00  0.00000000E+00
  0.00000000E+00  0.00000000E+00  0.00000000E+00
  0.00000000E+00  0.00000000E+00  0.00000000E+00
  0.00000000E+00  0.00000000E+00  0.00000000E+00
  0.00000000E+00  0.00000000E+00  0.00000000E+00
  0.00000000E+00  0.00000000E+00  0.00000000E+00
