Mg   O    H                             
   1.00000000000000     
     9.5557527542000003    0.0000000000000000    0.0000000000000000
    -4.7778763771000001    8.2755246374000002    0.0000000000000000
     0.0000000000000000    0.0000000000000000   32.6250953674000002
   Mg   O    H 
    45     6    12
Selective dynamics
Direct
  0.0000000000000000  0.0000000000000000  0.0000000000000000   F   F   F
  0.9998627123568369  0.0006940818415586  0.1581336632802817   T   T   T
  0.9956558884667928  0.9982672157121968  0.3299033366770274   T   T   T
  0.0000000098065698  0.3333333613114178  0.0000000000000000   F   F   F
  0.0004356178077529  0.3341704519844129  0.1574231179412280   T   T   T
  0.9984517099564272  0.3348605598255858  0.3111388930830046   T   T   T
  0.0000000196131396  0.6666667226228356  0.0000000000000000   F   F   F
  0.9997447892800366  0.6668212542600855  0.1573206078028377   T   T   T
  0.9999635665793747  0.6689510696187142  0.3140155647859189   T   T   T
  0.3333333416982782  0.0000000000000000  0.0000000000000000   F   F   F
  0.3337256765950443  0.0008731834414419  0.1573898601253276   T   T   T
  0.3309836210310593  0.0011543907492779  0.3103879895495254   T   T   T
  0.3333333515048480  0.3333333613114178  0.0000000000000000   F   F   F
  0.3329305927248356  0.3333780053187780  0.1573502388760133   T   T   T
  0.3325983394317547  0.3363171714326967  0.3141510447013758   T   T   T
  0.3333333597416868  0.6666667226228356  0.0000000000000000   F   F   F
  0.3331148112151325  0.6673365750277114  0.1581294829007902   T   T   T
  0.3306784960417417  0.6671733083506410  0.3303247047614235   T   T   T
  0.6666666832919077  0.0000000000000000  0.0000000000000000   F   F   F
  0.6663590611482846  0.0002353065853526  0.1573283356879287   T   T   T
  0.6668449327452350  0.0031482387687731  0.3135675357500176   T   T   T
  0.6666666806452426  0.3333333613114178  0.0000000000000000   F   F   F
  0.6664242802660780  0.3339115376746449  0.1581395272398680   T   T   T
  0.6622012106352244  0.3324696338294260  0.3299557347854574   T   T   T
  0.6666667030096960  0.6666667226228356  0.0000000000000000   F   F   F
  0.6669960974836471  0.6674648503431300  0.1573492548407529   T   T   T
  0.6644964014318759  0.6673183079629581  0.3102403797893132   T   T   T
  0.1111111284960415  0.2222222216206760  0.0798214519428555   F   F   F
  0.1104142032814011  0.2196636288238381  0.2361613635473816   T   T   T
  0.1111111350571008  0.5555556118124798  0.0798214519428555   F   F   F
  0.1142064220193575  0.5593983874910506  0.2360860979250319   T   T   T
  0.1111111554345570  0.8888889442433907  0.0798214519428555   F   F   F
  0.1082900872603290  0.8891770920368600  0.2351200020837680   T   T   T
  0.4444445023215593  0.2222222216206760  0.0798214519428555   F   F   F
  0.4475850306734515  0.2265700922114817  0.2360535552697343   T   T   T
  0.4444445016618417  0.5555556118124798  0.0798214519428555   F   F   F
  0.4415996270789719  0.5558841077228962  0.2350826172104021   T   T   T
  0.4444445131441270  0.8888889442433907  0.0798214519428555   F   F   F
  0.4439679528428329  0.8864840678327042  0.2359433368442012   T   T   T
  0.7777777941022634  0.2222222216206760  0.0798214519428555   F   F   F
  0.7755957172917363  0.2231940824213581  0.2352175106804566   T   T   T
  0.7777778058957736  0.5555556118124798  0.0798214519428555   F   F   F
  0.7775992806595937  0.5532242107772447  0.2358661521575200   T   T   T
  0.7777778387265144  0.8888889442433907  0.0798214519428555   F   F   F
  0.7807164306955059  0.8927852816238655  0.2358405142327982   T   T   T
  0.9822333666444010  0.9849444432225312  0.3963335169214304   T   T   T
  0.2503123298331928  0.9242482480416001  0.4139548841035392   T   T   T
  0.9010232281052808  0.2373659004771937  0.4140017856646594   T   T   T
  0.6500080289683154  0.3231877560465719  0.3963606226718142   T   T   T
  0.5887199494577970  0.5907939427057158  0.4138703332481342   T   T   T
  0.3305225968330845  0.6685605980174145  0.3963582039433078   T   T   T
  0.9664475823714440  0.0683049142018177  0.4100296990107211   T   T   T
  0.0701123367500500  0.9777900747748021  0.4103279960899400   T   T   T
  0.3513906063078878  0.0284966628702250  0.4131857014100717   T   T   T
  0.2240257910935242  0.8981718234907561  0.3842388190931132   T   T   T
  0.0040865557253511  0.3396902430666060  0.4138449847049799   T   T   T
  0.8759708863322473  0.2144119961853761  0.3840840588803403   T   T   T
  0.6424769707517157  0.4115380337320858  0.4099966763536145   T   T   T
  0.7326898857230475  0.3075915564139038  0.4104318735892605   T   T   T
  0.6927428815461525  0.6920636701095049  0.4126862126625355   T   T   T
  0.5599201282712798  0.5645781006672053  0.3842752078777281   T   T   T
  0.3175695743183837  0.7535456016343431  0.4100478981735876   T   T   T
  0.4160601281378149  0.6576978195365086  0.4103988592199102   T   T   T
 
  0.00000000E+00  0.00000000E+00  0.00000000E+00
  0.00000000E+00  0.00000000E+00  0.00000000E+00
  0.00000000E+00  0.00000000E+00  0.00000000E+00
  0.00000000E+00  0.00000000E+00  0.00000000E+00
  0.00000000E+00  0.00000000E+00  0.00000000E+00
  0.00000000E+00  0.00000000E+00  0.00000000E+00
  0.00000000E+00  0.00000000E+00  0.00000000E+00
  0.00000000E+00  0.00000000E+00  0.00000000E+00
  0.00000000E+00  0.00000000E+00  0.00000000E+00
  0.00000000E+00  0.00000000E+00  0.00000000E+00
  0.00000000E+00  0.00000000E+00  0.00000000E+00
  0.00000000E+00  0.00000000E+00  0.00000000E+00
  0.00000000E+00  0.00000000E+00  0.00000000E+00
  0.00000000E+00  0.00000000E+00  0.00000000E+00
  0.00000000E+00  0.00000000E+00  0.00000000E+00
  0.00000000E+00  0.00000000E+00  0.00000000E+00
  0.00000000E+00  0.00000000E+00  0.00000000E+00
  0.00000000E+00  0.00000000E+00  0.00000000E+00
  0.00000000E+00  0.00000000E+00  0.00000000E+00
  0.00000000E+00  0.00000000E+00  0.00000000E+00
  0.00000000E+00  0.00000000E+00  0.00000000E+00
  0.00000000E+00  0.00000000E+00  0.00000000E+00
  0.00000000E+00  0.00000000E+00  0.00000000E+00
  0.00000000E+00  0.00000000E+00  0.00000000E+00
  0.00000000E+00  0.00000000E+00  0.00000000E+00
  0.00000000E+00  0.00000000E+00  0.00000000E+00
  0.00000000E+00  0.00000000E+00  0.00000000E+00
  0.00000000E+00  0.00000000E+00  0.00000000E+00
  0.00000000E+00  0.00000000E+00  0.00000000E+00
  0.00000000E+00  0.00000000E+00  0.00000000E+00
  0.00000000E+00  0.00000000E+00  0.00000000E+00
  0.00000000E+00  0.00000000E+00  0.00000000E+00
  0.00000000E+00  0.00000000E+00  0.00000000E+00
  0.00000000E+00  0.00000000E+00  0.00000000E+00
  0.00000000E+00  0.00000000E+00  0.00000000E+00
  0.00000000E+00  0.00000000E+00  0.00000000E+00
  0.00000000E+00  0.00000000E+00  0.00000000E+00
  0.00000000E+00  0.00000000E+00  0.00000000E+00
  0.00000000E+00  0.00000000E+00  0.00000000E+00
  0.00000000E+00  0.00000000E+00  0.00000000E+00
  0.00000000E+00  0.00000000E+00  0.00000000E+00
  0.00000000E+00  0.00000000E+00  0.00000000E+00
  0.00000000E+00  0.00000000E+00  0.00000000E+00
  0.00000000E+00  0.00000000E+00  0.00000000E+00
  0.00000000E+00  0.00000000E+00  0.00000000E+00
  0.00000000E+00  0.00000000E+00  0.00000000E+00
  0.00000000E+00  0.00000000E+00  0.00000000E+00
  0.00000000E+00  0.00000000E+00  0.00000000E+00
  0.00000000E+00  0.00000000E+00  0.00000000E+00
  0.00000000E+00  0.00000000E+00  0.00000000E+00
  0.00000000E+00  0.00000000E+00  0.00000000E+00
  0.00000000E+00  0.00000000E+00  0.00000000E+00
  0.00000000E+00  0.00000000E+00  0.00000000E+00
  0.00000000E+00  0.00000000E+00  0.00000000E+00
  0.00000000E+00  0.00000000E+00  0.00000000E+00
  0.00000000E+00  0.00000000E+00  0.00000000E+00
  0.00000000E+00  0.00000000E+00  0.00000000E+00
  0.00000000E+00  0.00000000E+00  0.00000000E+00
  0.00000000E+00  0.00000000E+00  0.00000000E+00
  0.00000000E+00  0.00000000E+00  0.00000000E+00
  0.00000000E+00  0.00000000E+00  0.00000000E+00
  0.00000000E+00  0.00000000E+00  0.00000000E+00
  0.00000000E+00  0.00000000E+00  0.00000000E+00
