Mg   O    H                             
   1.00000000000000     
     9.5557527542000003    0.0000000000000000    0.0000000000000000
    -4.7778763771000001    8.2755246374000002    0.0000000000000000
     0.0000000000000000    0.0000000000000000   32.6250953674000002
   Mg   O    H 
    45     6    12
Selective dynamics
Direct
  0.0000000000000000  0.0000000000000000  0.0000000000000000   F   F   F
  0.9998627123568363  0.0006940818415572  0.1581336632802825   T   T   T
  0.9956558884667962  0.9982672157121938  0.3299033366770284   T   T   T
  0.0000000098065698  0.3333333613114178  0.0000000000000000   F   F   F
  0.0004356178077506  0.3341704519844148  0.1574231179412303   T   T   T
  0.9984517099564243  0.3348605598255861  0.3111388930830043   T   T   T
  0.0000000196131396  0.6666667226228356  0.0000000000000000   F   F   F
  0.9997447892800344  0.6668212542600865  0.1573206078028370   T   T   T
  0.9999635665793736  0.6689510696187120  0.3140155647859207   T   T   T
  0.3333333416982782  0.0000000000000000  0.0000000000000000   F   F   F
  0.3337256765950466  0.0008731834414400  0.1573898601253300   T   T   T
  0.3309836210310597  0.0011543907492757  0.3103879895495268   T   T   T
  0.3333333515048480  0.3333333613114178  0.0000000000000000   F   F   F
  0.3329305927248325  0.3333780053187773  0.1573502388760168   T   T   T
  0.3325983394317576  0.3363171714326944  0.3141510447013745   T   T   T
  0.3333333597416868  0.6666667226228356  0.0000000000000000   F   F   F
  0.3331148112151332  0.6673365750277137  0.1581294829007909   T   T   T
  0.3306784960417420  0.6671733083506376  0.3303247047614263   T   T   T
  0.6666666832919077  0.0000000000000000  0.0000000000000000   F   F   F
  0.6663590611482876  0.0002353065853521  0.1573283356879297   T   T   T
  0.6668449327452332  0.0031482387687718  0.3135675357500172   T   T   T
  0.6666666806452426  0.3333333613114178  0.0000000000000000   F   F   F
  0.6664242802660760  0.3339115376746451  0.1581395272398665   T   T   T
  0.6622012106352247  0.3324696338294232  0.3299557347854596   T   T   T
  0.6666667030096960  0.6666667226228356  0.0000000000000000   F   F   F
  0.6669960974836489  0.6674648503431281  0.1573492548407552   T   T   T
  0.6644964014318727  0.6673183079629599  0.3102403797893103   T   T   T
  0.1111111284960415  0.2222222216206760  0.0798214519428555   F   F   F
  0.1104142032814019  0.2196636288238375  0.2361613635473800   T   T   T
  0.1111111350571008  0.5555556118124798  0.0798214519428555   F   F   F
  0.1142064220193545  0.5593983874910493  0.2360860979250334   T   T   T
  0.1111111554345570  0.8888889442433907  0.0798214519428555   F   F   F
  0.1082900872603275  0.8891770920368632  0.2351200020837656   T   T   T
  0.4444445023215593  0.2222222216206760  0.0798214519428555   F   F   F
  0.4475850306734525  0.2265700922114851  0.2360535552697370   T   T   T
  0.4444445016618417  0.5555556118124798  0.0798214519428555   F   F   F
  0.4415996270789698  0.5558841077228935  0.2350826172104029   T   T   T
  0.4444445131441270  0.8888889442433907  0.0798214519428555   F   F   F
  0.4439679528428317  0.8864840678327075  0.2359433368441996   T   T   T
  0.7777777941022634  0.2222222216206760  0.0798214519428555   F   F   F
  0.7755957172917368  0.2231940824213570  0.2352175106804583   T   T   T
  0.7777778058957736  0.5555556118124798  0.0798214519428555   F   F   F
  0.7775992806595913  0.5532242107772426  0.2358661521575167   T   T   T
  0.7777778387265144  0.8888889442433907  0.0798214519428555   F   F   F
  0.7807164306955068  0.8927852816238626  0.2358405142327960   T   T   T
  0.9822333666444019  0.9849444432225328  0.3963335169214307   T   T   T
  0.2503123298331900  0.9242482480415984  0.4139548841035410   T   T   T
  0.9010232281052795  0.2373659004771924  0.4140017856646576   T   T   T
  0.6500080289683169  0.3231877560465710  0.3963606226718121   T   T   T
  0.5887199494577953  0.5907939427057177  0.4138703332481348   T   T   T
  0.3305225968330834  0.6685605980174137  0.3963582039433051   T   T   T
  0.9664475823714460  0.0683049142018171  0.4100296990107226   T   T   T
  0.0701123367500467  0.9777900747747991  0.4103279960899427   T   T   T
  0.3513906063078909  0.0284966628702260  0.4131857014100742   T   T   T
  0.2240257910935248  0.8981718234907566  0.3842388190931160   T   T   T
  0.0040865557253491  0.3396902430666059  0.4138449847049833   T   T   T
  0.8759708863322470  0.2144119961853731  0.3840840588803393   T   T   T
  0.6424769707517128  0.4115380337320841  0.4099966763536164   T   T   T
  0.7326898857230463  0.3075915564139010  0.4104318735892576   T   T   T
  0.6927428815461559  0.6920636701095024  0.4126862126625331   T   T   T
  0.5599201282712788  0.5645781006672052  0.3842752078777250   T   T   T
  0.3175695743183866  0.7535456016343449  0.4100478981735879   T   T   T
  0.4160601281378168  0.6576978195365087  0.4103988592199126   T   T   T
 
  0.00000000E+00  0.00000000E+00  0.00000000E+00
  0.00000000E+00  0.00000000E+00  0.00000000E+00
  0.00000000E+00  0.00000000E+00  0.00000000E+00
  0.00000000E+00  0.00000000E+00  0.00000000E+00
  0.00000000E+00  0.00000000E+00  0.00000000E+00
  0.00000000E+00  0.00000000E+00  0.00000000E+00
  0.00000000E+00  0.00000000E+00  0.00000000E+00
  0.00000000E+00  0.00000000E+00  0.00000000E+00
  0.00000000E+00  0.00000000E+00  0.00000000E+00
  0.00000000E+00  0.00000000E+00  0.00000000E+00
  0.00000000E+00  0.00000000E+00  0.00000000E+00
  0.00000000E+00  0.00000000E+00  0.00000000E+00
  0.00000000E+00  0.00000000E+00  0.00000000E+00
  0.00000000E+00  0.00000000E+00  0.00000000E+00
  0.00000000E+00  0.00000000E+00  0.00000000E+00
  0.00000000E+00  0.00000000E+00  0.00000000E+00
  0.00000000E+00  0.00000000E+00  0.00000000E+00
  0.00000000E+00  0.00000000E+00  0.00000000E+00
  0.00000000E+00  0.00000000E+00  0.00000000E+00
  0.00000000E+00  0.00000000E+00  0.00000000E+00
  0.00000000E+00  0.00000000E+00  0.00000000E+00
  0.00000000E+00  0.00000000E+00  0.00000000E+00
  0.00000000E+00  0.00000000E+00  0.00000000E+00
  0.00000000E+00  0.00000000E+00  0.00000000E+00
  0.00000000E+00  0.00000000E+00  0.00000000E+00
  0.00000000E+00  0.00000000E+00  0.00000000E+00
  0.00000000E+00  0.00000000E+00  0.00000000E+00
  0.00000000E+00  0.00000000E+00  0.00000000E+00
  0.00000000E+00  0.00000000E+00  0.00000000E+00
  0.00000000E+00  0.00000000E+00  0.00000000E+00
  0.00000000E+00  0.00000000E+00  0.00000000E+00
  0.00000000E+00  0.00000000E+00  0.00000000E+00
  0.00000000E+00  0.00000000E+00  0.00000000E+00
  0.00000000E+00  0.00000000E+00  0.00000000E+00
  0.00000000E+00  0.00000000E+00  0.00000000E+00
  0.00000000E+00  0.00000000E+00  0.00000000E+00
  0.00000000E+00  0.00000000E+00  0.00000000E+00
  0.00000000E+00  0.00000000E+00  0.00000000E+00
  0.00000000E+00  0.00000000E+00  0.00000000E+00
  0.00000000E+00  0.00000000E+00  0.00000000E+00
  0.00000000E+00  0.00000000E+00  0.00000000E+00
  0.00000000E+00  0.00000000E+00  0.00000000E+00
  0.00000000E+00  0.00000000E+00  0.00000000E+00
  0.00000000E+00  0.00000000E+00  0.00000000E+00
  0.00000000E+00  0.00000000E+00  0.00000000E+00
  0.00000000E+00  0.00000000E+00  0.00000000E+00
  0.00000000E+00  0.00000000E+00  0.00000000E+00
  0.00000000E+00  0.00000000E+00  0.00000000E+00
  0.00000000E+00  0.00000000E+00  0.00000000E+00
  0.00000000E+00  0.00000000E+00  0.00000000E+00
  0.00000000E+00  0.00000000E+00  0.00000000E+00
  0.00000000E+00  0.00000000E+00  0.00000000E+00
  0.00000000E+00  0.00000000E+00  0.00000000E+00
  0.00000000E+00  0.00000000E+00  0.00000000E+00
  0.00000000E+00  0.00000000E+00  0.00000000E+00
  0.00000000E+00  0.00000000E+00  0.00000000E+00
  0.00000000E+00  0.00000000E+00  0.00000000E+00
  0.00000000E+00  0.00000000E+00  0.00000000E+00
  0.00000000E+00  0.00000000E+00  0.00000000E+00
  0.00000000E+00  0.00000000E+00  0.00000000E+00
  0.00000000E+00  0.00000000E+00  0.00000000E+00
  0.00000000E+00  0.00000000E+00  0.00000000E+00
  0.00000000E+00  0.00000000E+00  0.00000000E+00
