Mg   O    H                             
   1.00000000000000     
     9.5557527542000003    0.0000000000000000    0.0000000000000000
    -4.7778763771000001    8.2755246374000002    0.0000000000000000
     0.0000000000000000    0.0000000000000000   32.6250953674000002
   Mg   O    H 
    45     6    12
Selective dynamics
Direct
  0.0000000000000000  0.0000000000000000  0.0000000000000000   F   F   F
  0.9983938007361886  0.9993457341514542  0.1578132842246873   T   T   T
  0.9953239224409032  0.9979351281201616  0.3281795454851135   T   T   T
  0.0000000098065698  0.3333333613114178  0.0000000000000000   F   F   F
  0.9993730462843331  0.3325769810827950  0.1573234636881509   T   T   T
  0.9969238040390280  0.3321123896026705  0.3097235212861236   T   T   T
  0.0000000196131396  0.6666667226228356  0.0000000000000000   F   F   F
  0.9983314568822834  0.6644654005462840  0.1571278237682563   T   T   T
  0.9978902050675842  0.6684814470939600  0.3123950145616305   T   T   T
  0.3333333416982782  0.0000000000000000  0.0000000000000000   F   F   F
  0.3332355694197418  0.9993928088346422  0.1570376989073665   T   T   T
  0.3265600689241737  0.9979671608916050  0.3080049884068004   T   T   T
  0.3333333515048480  0.3333333613114178  0.0000000000000000   F   F   F
  0.3323878045866948  0.3325978084270815  0.1573173983721219   T   T   T
  0.3271086445554729  0.3340852358692459  0.3142366122029898   T   T   T
  0.3333333597416868  0.6666667226228356  0.0000000000000000   F   F   F
  0.3322236802554102  0.6656875817298200  0.1579337284716260   T   T   T
  0.3247994024839826  0.6651585337023818  0.3304988883877797   T   T   T
  0.6666666832919077  0.0000000000000000  0.0000000000000000   F   F   F
  0.6657918585220557  0.9985206587832778  0.1572134955897582   T   T   T
  0.6621663259231099  0.9952102062619517  0.3129928226204299   T   T   T
  0.6666666806452426  0.3333333613114178  0.0000000000000000   F   F   F
  0.6656298676150314  0.3326423951682500  0.1580309489924971   T   T   T
  0.6595531684862692  0.3230514349567173  0.3240178737558139   T   T   T
  0.6666667030096960  0.6666667226228356  0.0000000000000000   F   F   F
  0.6662434830142203  0.6658022388514055  0.1578024161172067   T   T   T
  0.6614424623380302  0.6636816810091730  0.3116611476334796   T   T   T
  0.1111111284960415  0.2222222216206760  0.0798214519428555   F   F   F
  0.1095694730234200  0.2172052350495122  0.2356919912012145   T   T   T
  0.1111111350571008  0.5555556118124798  0.0798214519428555   F   F   F
  0.1133906449062678  0.5576351785232632  0.2356167038488479   T   T   T
  0.1111111554345570  0.8888889442433907  0.0798214519428555   F   F   F
  0.1066438688525366  0.8863392410746727  0.2334918906902956   T   T   T
  0.4444445023215593  0.2222222216206760  0.0798214519428555   F   F   F
  0.4455431709055944  0.2251455943472891  0.2353618062141294   T   T   T
  0.4444445016618417  0.5555556118124798  0.0798214519428555   F   F   F
  0.4406374240802506  0.5549842817255737  0.2354708816884354   T   T   T
  0.4444445131441270  0.8888889442433907  0.0798214519428555   F   F   F
  0.4427906585842933  0.8841083447426641  0.2351452495491344   T   T   T
  0.7777777941022634  0.2222222216206760  0.0798214519428555   F   F   F
  0.7730959677980849  0.2198357185896782  0.2347235347078325   T   T   T
  0.7777778058957736  0.5555556118124798  0.0798214519428555   F   F   F
  0.7746910734609074  0.5499395317331377  0.2363105279270172   T   T   T
  0.7777778387265144  0.8888889442433907  0.0798214519428555   F   F   F
  0.7796651170155755  0.8889960291326062  0.2362720282964546   T   T   T
  0.9706193806986292  0.9862457885617815  0.3959046305172222   T   T   T
  0.2621447431088413  0.9640746818612129  0.4116562440346740   T   T   T
  0.8931371377999042  0.2406688646108250  0.4103558688339817   T   T   T
  0.6508167654128769  0.3321373301348487  0.3898265479854501   T   T   T
  0.6500933663767796  0.6212976755002089  0.4019476420017440   T   T   T
  0.2919033235455260  0.6870544493501498  0.3964287093030521   T   T   T
  0.9540840758366471  0.0725866957834924  0.4076085455514260   T   T   T
  0.0627843388127900  0.9889303884296012  0.4103157990178445   T   T   T
  0.3657882586408050  0.0649885763381306  0.4145332868761145   T   T   T
  0.2418000492993002  0.9585624025305890  0.3813535904859364   T   T   T
  0.9947813485865993  0.3443118851860234  0.4086628676372115   T   T   T
  0.8647922855062546  0.2117793224927453  0.3807023592164427   T   T   T
  0.6652084707444175  0.4381593139225686  0.3986348569856943   T   T   T
  0.7312484214232597  0.3138782648659486  0.4041947849870624   T   T   T
  0.7324492843223851  0.7361440065290950  0.3997016718195709   T   T   T
  0.5572592098785734  0.6064762748915697  0.3852054930654063   T   T   T
  0.2862655524543314  0.7836412727485325  0.4055717068145341   T   T   T
  0.3563134022589907  0.6692062848925957  0.4167964357045619   T   T   T
 
  0.00000000E+00  0.00000000E+00  0.00000000E+00
  0.00000000E+00  0.00000000E+00  0.00000000E+00
  0.00000000E+00  0.00000000E+00  0.00000000E+00
  0.00000000E+00  0.00000000E+00  0.00000000E+00
  0.00000000E+00  0.00000000E+00  0.00000000E+00
  0.00000000E+00  0.00000000E+00  0.00000000E+00
  0.00000000E+00  0.00000000E+00  0.00000000E+00
  0.00000000E+00  0.00000000E+00  0.00000000E+00
  0.00000000E+00  0.00000000E+00  0.00000000E+00
  0.00000000E+00  0.00000000E+00  0.00000000E+00
  0.00000000E+00  0.00000000E+00  0.00000000E+00
  0.00000000E+00  0.00000000E+00  0.00000000E+00
  0.00000000E+00  0.00000000E+00  0.00000000E+00
  0.00000000E+00  0.00000000E+00  0.00000000E+00
  0.00000000E+00  0.00000000E+00  0.00000000E+00
  0.00000000E+00  0.00000000E+00  0.00000000E+00
  0.00000000E+00  0.00000000E+00  0.00000000E+00
  0.00000000E+00  0.00000000E+00  0.00000000E+00
  0.00000000E+00  0.00000000E+00  0.00000000E+00
  0.00000000E+00  0.00000000E+00  0.00000000E+00
  0.00000000E+00  0.00000000E+00  0.00000000E+00
  0.00000000E+00  0.00000000E+00  0.00000000E+00
  0.00000000E+00  0.00000000E+00  0.00000000E+00
  0.00000000E+00  0.00000000E+00  0.00000000E+00
  0.00000000E+00  0.00000000E+00  0.00000000E+00
  0.00000000E+00  0.00000000E+00  0.00000000E+00
  0.00000000E+00  0.00000000E+00  0.00000000E+00
  0.00000000E+00  0.00000000E+00  0.00000000E+00
  0.00000000E+00  0.00000000E+00  0.00000000E+00
  0.00000000E+00  0.00000000E+00  0.00000000E+00
  0.00000000E+00  0.00000000E+00  0.00000000E+00
  0.00000000E+00  0.00000000E+00  0.00000000E+00
  0.00000000E+00  0.00000000E+00  0.00000000E+00
  0.00000000E+00  0.00000000E+00  0.00000000E+00
  0.00000000E+00  0.00000000E+00  0.00000000E+00
  0.00000000E+00  0.00000000E+00  0.00000000E+00
  0.00000000E+00  0.00000000E+00  0.00000000E+00
  0.00000000E+00  0.00000000E+00  0.00000000E+00
  0.00000000E+00  0.00000000E+00  0.00000000E+00
  0.00000000E+00  0.00000000E+00  0.00000000E+00
  0.00000000E+00  0.00000000E+00  0.00000000E+00
  0.00000000E+00  0.00000000E+00  0.00000000E+00
  0.00000000E+00  0.00000000E+00  0.00000000E+00
  0.00000000E+00  0.00000000E+00  0.00000000E+00
  0.00000000E+00  0.00000000E+00  0.00000000E+00
  0.00000000E+00  0.00000000E+00  0.00000000E+00
  0.00000000E+00  0.00000000E+00  0.00000000E+00
  0.00000000E+00  0.00000000E+00  0.00000000E+00
  0.00000000E+00  0.00000000E+00  0.00000000E+00
  0.00000000E+00  0.00000000E+00  0.00000000E+00
  0.00000000E+00  0.00000000E+00  0.00000000E+00
  0.00000000E+00  0.00000000E+00  0.00000000E+00
  0.00000000E+00  0.00000000E+00  0.00000000E+00
  0.00000000E+00  0.00000000E+00  0.00000000E+00
  0.00000000E+00  0.00000000E+00  0.00000000E+00
  0.00000000E+00  0.00000000E+00  0.00000000E+00
  0.00000000E+00  0.00000000E+00  0.00000000E+00
  0.00000000E+00  0.00000000E+00  0.00000000E+00
  0.00000000E+00  0.00000000E+00  0.00000000E+00
  0.00000000E+00  0.00000000E+00  0.00000000E+00
  0.00000000E+00  0.00000000E+00  0.00000000E+00
  0.00000000E+00  0.00000000E+00  0.00000000E+00
  0.00000000E+00  0.00000000E+00  0.00000000E+00
