Mg   O    H                             
   1.00000000000000     
     9.5557527542000003    0.0000000000000000    0.0000000000000000
    -4.7778763771000001    8.2755246374000002    0.0000000000000000
     0.0000000000000000    0.0000000000000000   32.6250953674000002
   Mg   O    H 
    45     6    12
Selective dynamics
Direct
  0.0000000000000000  0.0000000000000000  0.0000000000000000   F   F   F
  0.9983938007361898  0.9993457341514526  0.1578132842246896   T   T   T
  0.9953239224409024  0.9979351281201608  0.3281795454851100   T   T   T
  0.0000000098065698  0.3333333613114178  0.0000000000000000   F   F   F
  0.9993730462843349  0.3325769810827985  0.1573234636881522   T   T   T
  0.9969238040390260  0.3321123896026704  0.3097235212861236   T   T   T
  0.0000000196131396  0.6666667226228356  0.0000000000000000   F   F   F
  0.9983314568822815  0.6644654005462859  0.1571278237682542   T   T   T
  0.9978902050675834  0.6684814470939570  0.3123950145616331   T   T   T
  0.3333333416982782  0.0000000000000000  0.0000000000000000   F   F   F
  0.3332355694197408  0.9993928088346442  0.1570376989073665   T   T   T
  0.3265600689241739  0.9979671608916079  0.3080049884067969   T   T   T
  0.3333333515048480  0.3333333613114178  0.0000000000000000   F   F   F
  0.3323878045866964  0.3325978084270809  0.1573173983721191   T   T   T
  0.3271086445554698  0.3340852358692479  0.3142366122029866   T   T   T
  0.3333333597416868  0.6666667226228356  0.0000000000000000   F   F   F
  0.3322236802554094  0.6656875817298199  0.1579337284716245   T   T   T
  0.3247994024839811  0.6651585337023802  0.3304988883877795   T   T   T
  0.6666666832919077  0.0000000000000000  0.0000000000000000   F   F   F
  0.6657918585220545  0.9985206587832781  0.1572134955897573   T   T   T
  0.6621663259231112  0.9952102062619526  0.3129928226204298   T   T   T
  0.6666666806452426  0.3333333613114178  0.0000000000000000   F   F   F
  0.6656298676150308  0.3326423951682508  0.1580309489924993   T   T   T
  0.6595531684862671  0.3230514349567200  0.3240178737558106   T   T   T
  0.6666667030096960  0.6666667226228356  0.0000000000000000   F   F   F
  0.6662434830142214  0.6658022388514090  0.1578024161172078   T   T   T
  0.6614424623380271  0.6636816810091752  0.3116611476334786   T   T   T
  0.1111111284960415  0.2222222216206760  0.0798214519428555   F   F   F
  0.1095694730234180  0.2172052350495114  0.2356919912012169   T   T   T
  0.1111111350571008  0.5555556118124798  0.0798214519428555   F   F   F
  0.1133906449062707  0.5576351785232602  0.2356167038488511   T   T   T
  0.1111111554345570  0.8888889442433907  0.0798214519428555   F   F   F
  0.1066438688525375  0.8863392410746698  0.2334918906902949   T   T   T
  0.4444445023215593  0.2222222216206760  0.0798214519428555   F   F   F
  0.4455431709055913  0.2251455943472858  0.2353618062141281   T   T   T
  0.4444445016618417  0.5555556118124798  0.0798214519428555   F   F   F
  0.4406374240802527  0.5549842817255717  0.2354708816884369   T   T   T
  0.4444445131441270  0.8888889442433907  0.0798214519428555   F   F   F
  0.4427906585842958  0.8841083447426645  0.2351452495491342   T   T   T
  0.7777777941022634  0.2222222216206760  0.0798214519428555   F   F   F
  0.7730959677980854  0.2198357185896780  0.2347235347078354   T   T   T
  0.7777778058957736  0.5555556118124798  0.0798214519428555   F   F   F
  0.7746910734609059  0.5499395317331404  0.2363105279270164   T   T   T
  0.7777778387265144  0.8888889442433907  0.0798214519428555   F   F   F
  0.7796651170155743  0.8889960291326039  0.2362720282964550   T   T   T
  0.9706193806986260  0.9862457885617819  0.3959046305172210   T   T   T
  0.2621447431088396  0.9640746818612144  0.4116562440346714   T   T   T
  0.8931371377999072  0.2406688646108282  0.4103558688339807   T   T   T
  0.6508167654128758  0.3321373301348481  0.3898265479854517   T   T   T
  0.6500933663767824  0.6212976755002123  0.4019476420017437   T   T   T
  0.2919033235455256  0.6870544493501500  0.3964287093030505   T   T   T
  0.9540840758366481  0.0725866957834892  0.4076085455514283   T   T   T
  0.0627843388127906  0.9889303884295992  0.4103157990178447   T   T   T
  0.3657882586408074  0.0649885763381317  0.4145332868761116   T   T   T
  0.2418000492992991  0.9585624025305859  0.3813535904859334   T   T   T
  0.9947813485865957  0.3443118851860225  0.4086628676372096   T   T   T
  0.8647922855062571  0.2117793224927439  0.3807023592164456   T   T   T
  0.6652084707444166  0.4381593139225661  0.3986348569856978   T   T   T
  0.7312484214232601  0.3138782648659474  0.4041947849870646   T   T   T
  0.7324492843223820  0.7361440065290957  0.3997016718195692   T   T   T
  0.5572592098785717  0.6064762748915677  0.3852054930654037   T   T   T
  0.2862655524543293  0.7836412727485320  0.4055717068145316   T   T   T
  0.3563134022589876  0.6692062848925932  0.4167964357045600   T   T   T
 
  0.00000000E+00  0.00000000E+00  0.00000000E+00
  0.00000000E+00  0.00000000E+00  0.00000000E+00
  0.00000000E+00  0.00000000E+00  0.00000000E+00
  0.00000000E+00  0.00000000E+00  0.00000000E+00
  0.00000000E+00  0.00000000E+00  0.00000000E+00
  0.00000000E+00  0.00000000E+00  0.00000000E+00
  0.00000000E+00  0.00000000E+00  0.00000000E+00
  0.00000000E+00  0.00000000E+00  0.00000000E+00
  0.00000000E+00  0.00000000E+00  0.00000000E+00
  0.00000000E+00  0.00000000E+00  0.00000000E+00
  0.00000000E+00  0.00000000E+00  0.00000000E+00
  0.00000000E+00  0.00000000E+00  0.00000000E+00
  0.00000000E+00  0.00000000E+00  0.00000000E+00
  0.00000000E+00  0.00000000E+00  0.00000000E+00
  0.00000000E+00  0.00000000E+00  0.00000000E+00
  0.00000000E+00  0.00000000E+00  0.00000000E+00
  0.00000000E+00  0.00000000E+00  0.00000000E+00
  0.00000000E+00  0.00000000E+00  0.00000000E+00
  0.00000000E+00  0.00000000E+00  0.00000000E+00
  0.00000000E+00  0.00000000E+00  0.00000000E+00
  0.00000000E+00  0.00000000E+00  0.00000000E+00
  0.00000000E+00  0.00000000E+00  0.00000000E+00
  0.00000000E+00  0.00000000E+00  0.00000000E+00
  0.00000000E+00  0.00000000E+00  0.00000000E+00
  0.00000000E+00  0.00000000E+00  0.00000000E+00
  0.00000000E+00  0.00000000E+00  0.00000000E+00
  0.00000000E+00  0.00000000E+00  0.00000000E+00
  0.00000000E+00  0.00000000E+00  0.00000000E+00
  0.00000000E+00  0.00000000E+00  0.00000000E+00
  0.00000000E+00  0.00000000E+00  0.00000000E+00
  0.00000000E+00  0.00000000E+00  0.00000000E+00
  0.00000000E+00  0.00000000E+00  0.00000000E+00
  0.00000000E+00  0.00000000E+00  0.00000000E+00
  0.00000000E+00  0.00000000E+00  0.00000000E+00
  0.00000000E+00  0.00000000E+00  0.00000000E+00
  0.00000000E+00  0.00000000E+00  0.00000000E+00
  0.00000000E+00  0.00000000E+00  0.00000000E+00
  0.00000000E+00  0.00000000E+00  0.00000000E+00
  0.00000000E+00  0.00000000E+00  0.00000000E+00
  0.00000000E+00  0.00000000E+00  0.00000000E+00
  0.00000000E+00  0.00000000E+00  0.00000000E+00
  0.00000000E+00  0.00000000E+00  0.00000000E+00
  0.00000000E+00  0.00000000E+00  0.00000000E+00
  0.00000000E+00  0.00000000E+00  0.00000000E+00
  0.00000000E+00  0.00000000E+00  0.00000000E+00
  0.00000000E+00  0.00000000E+00  0.00000000E+00
  0.00000000E+00  0.00000000E+00  0.00000000E+00
  0.00000000E+00  0.00000000E+00  0.00000000E+00
  0.00000000E+00  0.00000000E+00  0.00000000E+00
  0.00000000E+00  0.00000000E+00  0.00000000E+00
  0.00000000E+00  0.00000000E+00  0.00000000E+00
  0.00000000E+00  0.00000000E+00  0.00000000E+00
  0.00000000E+00  0.00000000E+00  0.00000000E+00
  0.00000000E+00  0.00000000E+00  0.00000000E+00
  0.00000000E+00  0.00000000E+00  0.00000000E+00
  0.00000000E+00  0.00000000E+00  0.00000000E+00
  0.00000000E+00  0.00000000E+00  0.00000000E+00
  0.00000000E+00  0.00000000E+00  0.00000000E+00
  0.00000000E+00  0.00000000E+00  0.00000000E+00
  0.00000000E+00  0.00000000E+00  0.00000000E+00
  0.00000000E+00  0.00000000E+00  0.00000000E+00
  0.00000000E+00  0.00000000E+00  0.00000000E+00
  0.00000000E+00  0.00000000E+00  0.00000000E+00
