Mg   O    H                             
   1.00000000000000     
     9.5557527542000003    0.0000000000000000    0.0000000000000000
    -4.7778763771000001    8.2755246374000002    0.0000000000000000
     0.0000000000000000    0.0000000000000000   32.6250953674000002
   Mg   O    H 
    45     6    12
Selective dynamics
Direct
  0.0000000000000000  0.0000000000000000  0.0000000000000000   F   F   F
  0.9985470089167663  0.0000018784408482  0.1577338474148036   T   T   T
  0.9932196355763523  0.9974195168005195  0.3286676009044101   T   T   T
  0.0000000098065698  0.3333333613114178  0.0000000000000000   F   F   F
  0.9994028023748314  0.3332255048688708  0.1572694658987714   T   T   T
  0.9968234233098485  0.3340057649834520  0.3101374347916419   T   T   T
  0.0000000196131396  0.6666667226228356  0.0000000000000000   F   F   F
  0.9984996820146250  0.6653451698940671  0.1570483603992585   T   T   T
  0.9968960465984580  0.6696533715090425  0.3125842061103938   T   T   T
  0.3333333416982782  0.0000000000000000  0.0000000000000000   F   F   F
  0.3330851727563342  0.9999655253702358  0.1570603746719357   T   T   T
  0.3273492613972238  0.0004793675654966  0.3083641369819361   T   T   T
  0.3333333515048480  0.3333333613114178  0.0000000000000000   F   F   F
  0.3319888220865082  0.3325120198909204  0.1571180891822905   T   T   T
  0.3280814133429573  0.3363851260213551  0.3141620587182032   T   T   T
  0.3333333597416868  0.6666667226228356  0.0000000000000000   F   F   F
  0.3319101442040377  0.6665793061192460  0.1577748661306870   T   T   T
  0.3261799466701589  0.6671278800320763  0.3306407002450200   T   T   T
  0.6666666832919077  0.0000000000000000  0.0000000000000000   F   F   F
  0.6654771400701733  0.9993358756068318  0.1571175864288961   T   T   T
  0.6629165176664742  0.9998583456180796  0.3129333893458508   T   T   T
  0.6666666806452426  0.3333333613114178  0.0000000000000000   F   F   F
  0.6654151666321653  0.3330980652051565  0.1579203476315101   T   T   T
  0.6599182568980098  0.3296633835016181  0.3259612206668834   T   T   T
  0.6666667030096960  0.6666667226228356  0.0000000000000000   F   F   F
  0.6661453546869041  0.6665220120108231  0.1572573030968059   T   T   T
  0.6592697257543421  0.6667294895906153  0.3094912619229362   T   T   T
  0.1111111284960415  0.2222222216206760  0.0798214519428555   F   F   F
  0.1091560927699220  0.2181208155327923  0.2357869089520861   T   T   T
  0.1111111350571008  0.5555556118124798  0.0798214519428555   F   F   F
  0.1129615538870894  0.5585582850545521  0.2356528042855075   T   T   T
  0.1111111554345570  0.8888889442433907  0.0798214519428555   F   F   F
  0.1064234669238289  0.8875582346784370  0.2337604216980580   T   T   T
  0.4444445023215593  0.2222222216206760  0.0798214519428555   F   F   F
  0.4459472649935137  0.2264144369162793  0.2354863319235818   T   T   T
  0.4444445016618417  0.5555556118124798  0.0798214519428555   F   F   F
  0.4392243973920245  0.5545943935439084  0.2343931663794905   T   T   T
  0.4444445131441270  0.8888889442433907  0.0798214519428555   F   F   F
  0.4425569231645881  0.8847379362290226  0.2353477543066873   T   T   T
  0.7777777941022634  0.2222222216206760  0.0798214519428555   F   F   F
  0.7734038014034041  0.2218363440012467  0.2347408537213198   T   T   T
  0.7777778058957736  0.5555556118124798  0.0798214519428555   F   F   F
  0.7752972967164098  0.5515917241432788  0.2356286990429624   T   T   T
  0.7777778387265144  0.8888889442433907  0.0798214519428555   F   F   F
  0.7794351865614288  0.8915300800076835  0.2354876965137080   T   T   T
  0.9696741172512802  0.9835130346834617  0.3959485841969723   T   T   T
  0.2577506179436568  0.9576620266446909  0.4121568161567737   T   T   T
  0.8923761713184675  0.2381181974544546  0.4113181910088599   T   T   T
  0.6534603125420162  0.3391236620654112  0.3914998863330510   T   T   T
  0.6370640359932480  0.6172551367792281  0.4102884369092052   T   T   T
  0.3025566485767115  0.6868555847607496  0.3965525520549491   T   T   T
  0.9512187456059422  0.0680127654660154  0.4080680681459157   T   T   T
  0.0619313961325219  0.9861252599165198  0.4103082739202719   T   T   T
  0.3600390381587957  0.0594092839620544  0.4156886666985713   T   T   T
  0.2402979308489748  0.9526299289055160  0.3817435988900684   T   T   T
  0.9955230976470233  0.3403219232884922  0.4100459383297235   T   T   T
  0.8638722974008459  0.2118576666709089  0.3816057926819809   T   T   T
  0.6617325197604984  0.4407832151013622  0.4022112285616402   T   T   T
  0.7325400598311518  0.3193725452093830  0.4059766723866787   T   T   T
  0.7338056922034752  0.7229641829355060  0.4053508664478187   T   T   T
  0.5699098571145953  0.5997728043404393  0.3854882898776495   T   T   T
  0.2906773858761937  0.7791560249264577  0.4061835406091134   T   T   T
  0.3795294856017506  0.6795129436860279  0.4149156968146599   T   T   T
 
  0.00000000E+00  0.00000000E+00  0.00000000E+00
  0.00000000E+00  0.00000000E+00  0.00000000E+00
  0.00000000E+00  0.00000000E+00  0.00000000E+00
  0.00000000E+00  0.00000000E+00  0.00000000E+00
  0.00000000E+00  0.00000000E+00  0.00000000E+00
  0.00000000E+00  0.00000000E+00  0.00000000E+00
  0.00000000E+00  0.00000000E+00  0.00000000E+00
  0.00000000E+00  0.00000000E+00  0.00000000E+00
  0.00000000E+00  0.00000000E+00  0.00000000E+00
  0.00000000E+00  0.00000000E+00  0.00000000E+00
  0.00000000E+00  0.00000000E+00  0.00000000E+00
  0.00000000E+00  0.00000000E+00  0.00000000E+00
  0.00000000E+00  0.00000000E+00  0.00000000E+00
  0.00000000E+00  0.00000000E+00  0.00000000E+00
  0.00000000E+00  0.00000000E+00  0.00000000E+00
  0.00000000E+00  0.00000000E+00  0.00000000E+00
  0.00000000E+00  0.00000000E+00  0.00000000E+00
  0.00000000E+00  0.00000000E+00  0.00000000E+00
  0.00000000E+00  0.00000000E+00  0.00000000E+00
  0.00000000E+00  0.00000000E+00  0.00000000E+00
  0.00000000E+00  0.00000000E+00  0.00000000E+00
  0.00000000E+00  0.00000000E+00  0.00000000E+00
  0.00000000E+00  0.00000000E+00  0.00000000E+00
  0.00000000E+00  0.00000000E+00  0.00000000E+00
  0.00000000E+00  0.00000000E+00  0.00000000E+00
  0.00000000E+00  0.00000000E+00  0.00000000E+00
  0.00000000E+00  0.00000000E+00  0.00000000E+00
  0.00000000E+00  0.00000000E+00  0.00000000E+00
  0.00000000E+00  0.00000000E+00  0.00000000E+00
  0.00000000E+00  0.00000000E+00  0.00000000E+00
  0.00000000E+00  0.00000000E+00  0.00000000E+00
  0.00000000E+00  0.00000000E+00  0.00000000E+00
  0.00000000E+00  0.00000000E+00  0.00000000E+00
  0.00000000E+00  0.00000000E+00  0.00000000E+00
  0.00000000E+00  0.00000000E+00  0.00000000E+00
  0.00000000E+00  0.00000000E+00  0.00000000E+00
  0.00000000E+00  0.00000000E+00  0.00000000E+00
  0.00000000E+00  0.00000000E+00  0.00000000E+00
  0.00000000E+00  0.00000000E+00  0.00000000E+00
  0.00000000E+00  0.00000000E+00  0.00000000E+00
  0.00000000E+00  0.00000000E+00  0.00000000E+00
  0.00000000E+00  0.00000000E+00  0.00000000E+00
  0.00000000E+00  0.00000000E+00  0.00000000E+00
  0.00000000E+00  0.00000000E+00  0.00000000E+00
  0.00000000E+00  0.00000000E+00  0.00000000E+00
  0.00000000E+00  0.00000000E+00  0.00000000E+00
  0.00000000E+00  0.00000000E+00  0.00000000E+00
  0.00000000E+00  0.00000000E+00  0.00000000E+00
  0.00000000E+00  0.00000000E+00  0.00000000E+00
  0.00000000E+00  0.00000000E+00  0.00000000E+00
  0.00000000E+00  0.00000000E+00  0.00000000E+00
  0.00000000E+00  0.00000000E+00  0.00000000E+00
  0.00000000E+00  0.00000000E+00  0.00000000E+00
  0.00000000E+00  0.00000000E+00  0.00000000E+00
  0.00000000E+00  0.00000000E+00  0.00000000E+00
  0.00000000E+00  0.00000000E+00  0.00000000E+00
  0.00000000E+00  0.00000000E+00  0.00000000E+00
  0.00000000E+00  0.00000000E+00  0.00000000E+00
  0.00000000E+00  0.00000000E+00  0.00000000E+00
  0.00000000E+00  0.00000000E+00  0.00000000E+00
  0.00000000E+00  0.00000000E+00  0.00000000E+00
  0.00000000E+00  0.00000000E+00  0.00000000E+00
  0.00000000E+00  0.00000000E+00  0.00000000E+00
