Mg   O    H                             
   1.00000000000000     
     9.5557527542000003    0.0000000000000000    0.0000000000000000
    -4.7778763771000001    8.2755246374000002    0.0000000000000000
     0.0000000000000000    0.0000000000000000   32.6250953674000002
   Mg   O    H 
    45     6    12
Selective dynamics
Direct
  0.0000000000000000  0.0000000000000000  0.0000000000000000   F   F   F
  0.9985470089167635  0.0000018784408448  0.1577338474148046   T   T   T
  0.9932196355763536  0.9974195168005220  0.3286676009044130   T   T   T
  0.0000000098065698  0.3333333613114178  0.0000000000000000   F   F   F
  0.9994028023748299  0.3332255048688730  0.1572694658987710   T   T   T
  0.9968234233098450  0.3340057649834502  0.3101374347916447   T   T   T
  0.0000000196131396  0.6666667226228356  0.0000000000000000   F   F   F
  0.9984996820146241  0.6653451698940700  0.1570483603992590   T   T   T
  0.9968960465984597  0.6696533715090446  0.3125842061103952   T   T   T
  0.3333333416982782  0.0000000000000000  0.0000000000000000   F   F   F
  0.3330851727563349  0.9999655253702372  0.1570603746719360   T   T   T
  0.3273492613972260  0.0004793675654959  0.3083641369819374   T   T   T
  0.3333333515048480  0.3333333613114178  0.0000000000000000   F   F   F
  0.3319888220865105  0.3325120198909190  0.1571180891822930   T   T   T
  0.3280814133429571  0.3363851260213546  0.3141620587182059   T   T   T
  0.3333333597416868  0.6666667226228356  0.0000000000000000   F   F   F
  0.3319101442040362  0.6665793061192493  0.1577748661306851   T   T   T
  0.3261799466701593  0.6671278800320792  0.3306407002450234   T   T   T
  0.6666666832919077  0.0000000000000000  0.0000000000000000   F   F   F
  0.6654771400701732  0.9993358756068309  0.1571175864288957   T   T   T
  0.6629165176664734  0.9998583456180786  0.3129333893458496   T   T   T
  0.6666666806452426  0.3333333613114178  0.0000000000000000   F   F   F
  0.6654151666321657  0.3330980652051580  0.1579203476315102   T   T   T
  0.6599182568980081  0.3296633835016191  0.3259612206668813   T   T   T
  0.6666667030096960  0.6666667226228356  0.0000000000000000   F   F   F
  0.6661453546869074  0.6665220120108222  0.1572573030968039   T   T   T
  0.6592697257543413  0.6667294895906187  0.3094912619229395   T   T   T
  0.1111111284960415  0.2222222216206760  0.0798214519428555   F   F   F
  0.1091560927699234  0.2181208155327918  0.2357869089520826   T   T   T
  0.1111111350571008  0.5555556118124798  0.0798214519428555   F   F   F
  0.1129615538870885  0.5585582850545495  0.2356528042855084   T   T   T
  0.1111111554345570  0.8888889442433907  0.0798214519428555   F   F   F
  0.1064234669238257  0.8875582346784373  0.2337604216980545   T   T   T
  0.4444445023215593  0.2222222216206760  0.0798214519428555   F   F   F
  0.4459472649935103  0.2264144369162805  0.2354863319235819   T   T   T
  0.4444445016618417  0.5555556118124798  0.0798214519428555   F   F   F
  0.4392243973920280  0.5545943935439114  0.2343931663794916   T   T   T
  0.4444445131441270  0.8888889442433907  0.0798214519428555   F   F   F
  0.4425569231645872  0.8847379362290256  0.2353477543066863   T   T   T
  0.7777777941022634  0.2222222216206760  0.0798214519428555   F   F   F
  0.7734038014034054  0.2218363440012440  0.2347408537213170   T   T   T
  0.7777778058957736  0.5555556118124798  0.0798214519428555   F   F   F
  0.7752972967164102  0.5515917241432762  0.2356286990429617   T   T   T
  0.7777778387265144  0.8888889442433907  0.0798214519428555   F   F   F
  0.7794351865614303  0.8915300800076864  0.2354876965137062   T   T   T
  0.9696741172512784  0.9835130346834642  0.3959485841969703   T   T   T
  0.2577506179436563  0.9576620266446914  0.4121568161567761   T   T   T
  0.8923761713184706  0.2381181974544557  0.4113181910088593   T   T   T
  0.6534603125420196  0.3391236620654119  0.3914998863330527   T   T   T
  0.6370640359932495  0.6172551367792265  0.4102884369092044   T   T   T
  0.3025566485767142  0.6868555847607504  0.3965525520549512   T   T   T
  0.9512187456059387  0.0680127654660169  0.4080680681459142   T   T   T
  0.0619313961325184  0.9861252599165226  0.4103082739202750   T   T   T
  0.3600390381587978  0.0594092839620573  0.4156886666985700   T   T   T
  0.2402979308489727  0.9526299289055177  0.3817435988900675   T   T   T
  0.9955230976470241  0.3403219232884926  0.4100459383297231   T   T   T
  0.8638722974008494  0.2118576666709090  0.3816057926819825   T   T   T
  0.6617325197604967  0.4407832151013619  0.4022112285616435   T   T   T
  0.7325400598311482  0.3193725452093847  0.4059766723866788   T   T   T
  0.7338056922034784  0.7229641829355091  0.4053508664478182   T   T   T
  0.5699098571145962  0.5997728043404371  0.3854882898776525   T   T   T
  0.2906773858761918  0.7791560249264581  0.4061835406091160   T   T   T
  0.3795294856017535  0.6795129436860267  0.4149156968146624   T   T   T
 
  0.00000000E+00  0.00000000E+00  0.00000000E+00
  0.00000000E+00  0.00000000E+00  0.00000000E+00
  0.00000000E+00  0.00000000E+00  0.00000000E+00
  0.00000000E+00  0.00000000E+00  0.00000000E+00
  0.00000000E+00  0.00000000E+00  0.00000000E+00
  0.00000000E+00  0.00000000E+00  0.00000000E+00
  0.00000000E+00  0.00000000E+00  0.00000000E+00
  0.00000000E+00  0.00000000E+00  0.00000000E+00
  0.00000000E+00  0.00000000E+00  0.00000000E+00
  0.00000000E+00  0.00000000E+00  0.00000000E+00
  0.00000000E+00  0.00000000E+00  0.00000000E+00
  0.00000000E+00  0.00000000E+00  0.00000000E+00
  0.00000000E+00  0.00000000E+00  0.00000000E+00
  0.00000000E+00  0.00000000E+00  0.00000000E+00
  0.00000000E+00  0.00000000E+00  0.00000000E+00
  0.00000000E+00  0.00000000E+00  0.00000000E+00
  0.00000000E+00  0.00000000E+00  0.00000000E+00
  0.00000000E+00  0.00000000E+00  0.00000000E+00
  0.00000000E+00  0.00000000E+00  0.00000000E+00
  0.00000000E+00  0.00000000E+00  0.00000000E+00
  0.00000000E+00  0.00000000E+00  0.00000000E+00
  0.00000000E+00  0.00000000E+00  0.00000000E+00
  0.00000000E+00  0.00000000E+00  0.00000000E+00
  0.00000000E+00  0.00000000E+00  0.00000000E+00
  0.00000000E+00  0.00000000E+00  0.00000000E+00
  0.00000000E+00  0.00000000E+00  0.00000000E+00
  0.00000000E+00  0.00000000E+00  0.00000000E+00
  0.00000000E+00  0.00000000E+00  0.00000000E+00
  0.00000000E+00  0.00000000E+00  0.00000000E+00
  0.00000000E+00  0.00000000E+00  0.00000000E+00
  0.00000000E+00  0.00000000E+00  0.00000000E+00
  0.00000000E+00  0.00000000E+00  0.00000000E+00
  0.00000000E+00  0.00000000E+00  0.00000000E+00
  0.00000000E+00  0.00000000E+00  0.00000000E+00
  0.00000000E+00  0.00000000E+00  0.00000000E+00
  0.00000000E+00  0.00000000E+00  0.00000000E+00
  0.00000000E+00  0.00000000E+00  0.00000000E+00
  0.00000000E+00  0.00000000E+00  0.00000000E+00
  0.00000000E+00  0.00000000E+00  0.00000000E+00
  0.00000000E+00  0.00000000E+00  0.00000000E+00
  0.00000000E+00  0.00000000E+00  0.00000000E+00
  0.00000000E+00  0.00000000E+00  0.00000000E+00
  0.00000000E+00  0.00000000E+00  0.00000000E+00
  0.00000000E+00  0.00000000E+00  0.00000000E+00
  0.00000000E+00  0.00000000E+00  0.00000000E+00
  0.00000000E+00  0.00000000E+00  0.00000000E+00
  0.00000000E+00  0.00000000E+00  0.00000000E+00
  0.00000000E+00  0.00000000E+00  0.00000000E+00
  0.00000000E+00  0.00000000E+00  0.00000000E+00
  0.00000000E+00  0.00000000E+00  0.00000000E+00
  0.00000000E+00  0.00000000E+00  0.00000000E+00
  0.00000000E+00  0.00000000E+00  0.00000000E+00
  0.00000000E+00  0.00000000E+00  0.00000000E+00
  0.00000000E+00  0.00000000E+00  0.00000000E+00
  0.00000000E+00  0.00000000E+00  0.00000000E+00
  0.00000000E+00  0.00000000E+00  0.00000000E+00
  0.00000000E+00  0.00000000E+00  0.00000000E+00
  0.00000000E+00  0.00000000E+00  0.00000000E+00
  0.00000000E+00  0.00000000E+00  0.00000000E+00
  0.00000000E+00  0.00000000E+00  0.00000000E+00
  0.00000000E+00  0.00000000E+00  0.00000000E+00
  0.00000000E+00  0.00000000E+00  0.00000000E+00
  0.00000000E+00  0.00000000E+00  0.00000000E+00
