Mg   O    H                             
   1.00000000000000     
     9.5557527542000003    0.0000000000000000    0.0000000000000000
    -4.7778763771000001    8.2755246374000002    0.0000000000000000
     0.0000000000000000    0.0000000000000000   32.6250953674000002
   Mg   O    H 
    45     6    12
Selective dynamics
Direct
  0.0000000000000000  0.0000000000000000  0.0000000000000000   F   F   F
  0.9997969019311626  0.0018895498380473  0.1582242339522040   T   T   T
  0.0023664906746532  0.0138861328634263  0.3294799697471475   T   T   T
  0.0000000098065698  0.3333333613114178  0.0000000000000000   F   F   F
  0.0002717438099538  0.3362981159347100  0.1580269474993088   T   T   T
  0.9959018557682597  0.3374541031850598  0.3123757168768719   T   T   T
  0.0000000196131396  0.6666667226228356  0.0000000000000000   F   F   F
  0.0012648291270949  0.6702049898642883  0.1574238720849408   T   T   T
  0.0002841150363864  0.6734264827954561  0.3146465270924423   T   T   T
  0.3333333416982782  0.0000000000000000  0.0000000000000000   F   F   F
  0.3332911643562824  0.0017018540038904  0.1575624837373226   T   T   T
  0.3287925060055059  0.0072521530019429  0.3099569820378605   T   T   T
  0.3333333515048480  0.3333333613114178  0.0000000000000000   F   F   F
  0.3320074329428948  0.3333990772267938  0.1571446312067692   T   T   T
  0.3239556745465180  0.3335428326003083  0.3131993500795858   T   T   T
  0.3333333597416868  0.6666667226228356  0.0000000000000000   F   F   F
  0.3326354952131041  0.6705993491856503  0.1580206646768190   T   T   T
  0.3224729280301659  0.6739251882905464  0.3303967244823980   T   T   T
  0.6666666832919077  0.0000000000000000  0.0000000000000000   F   F   F
  0.6653668085030446  0.0013190025144070  0.1579530548735235   T   T   T
  0.6689818974538397  0.0086286844609589  0.3143454970290378   T   T   T
  0.6666666806452426  0.3333333613114178  0.0000000000000000   F   F   F
  0.6662946495974538  0.3351238780359935  0.1583322111246233   T   T   T
  0.6546359720204364  0.3239645801609257  0.3327436810484841   T   T   T
  0.6666667030096960  0.6666667226228356  0.0000000000000000   F   F   F
  0.6682603215314487  0.6701463002529522  0.1569862566008240   T   T   T
  0.6611363540238173  0.6779611014624152  0.3136268668983178   T   T   T
  0.1111111284960415  0.2222222216206760  0.0798214519428555   F   F   F
  0.1093696700192694  0.2241475499927077  0.2363765212497313   T   T   T
  0.1111111350571008  0.5555556118124798  0.0798214519428555   F   F   F
  0.1143320482296986  0.5621583849380158  0.2375921003685662   T   T   T
  0.1111111554345570  0.8888889442433907  0.0798214519428555   F   F   F
  0.1065359261438559  0.8921943896201796  0.2363968747990057   T   T   T
  0.4444445023215593  0.2222222216206760  0.0798214519428555   F   F   F
  0.4496191766114350  0.2333018715258603  0.2368669364214213   T   T   T
  0.4444445016618417  0.5555556118124798  0.0798214519428555   F   F   F
  0.4453501153515305  0.5592247977080902  0.2335938453371682   T   T   T
  0.4444445131441270  0.8888889442433907  0.0798214519428555   F   F   F
  0.4436412598919546  0.8873851003042290  0.2375172709746067   T   T   T
  0.7777777941022634  0.2222222216206760  0.0798214519428555   F   F   F
  0.7756824323996270  0.2282868634347608  0.2365023348139914   T   T   T
  0.7777778058957736  0.5555556118124798  0.0798214519428555   F   F   F
  0.7775957260281672  0.5591238335748443  0.2350064618093768   T   T   T
  0.7777778387265144  0.8888889442433907  0.0798214519428555   F   F   F
  0.7805803153066080  0.8934685094967563  0.2378798694443489   T   T   T
  0.9935823434847748  0.9917397939143626  0.3959774645454885   T   T   T
  0.2787076865368903  0.9548762129562292  0.4123381013603975   T   T   T
  0.8749515463774671  0.2181273477767007  0.4147278816220847   T   T   T
  0.6163106044889091  0.2696749381377117  0.4006034716895996   T   T   T
  0.7740809329837077  0.5727356106264097  0.3453328241549016   T   T   T
  0.3514236389565824  0.7071671231333170  0.3958711623898594   T   T   T
  0.9599967648046999  0.0604558156535688  0.4105858158945566   T   T   T
  0.0881551929552771  0.9988488215112952  0.4100895875055102   T   T   T
  0.3828528165221314  0.0564250754545128  0.4097925574721799   T   T   T
  0.2411584745136039  0.9293192887374744  0.3831592010119493   T   T   T
  0.9735014890703013  0.3235382221160918  0.4180101270862764   T   T   T
  0.8662295543189984  0.2039523091773248  0.3839351217001976   T   T   T
  0.6125069089421089  0.3514472002642179  0.4178988812294406   T   T   T
  0.7044160976272096  0.2526624163190263  0.4116671167411212   T   T   T
  0.7928451248717465  0.6059539388679696  0.3742402939068654   T   T   T
  0.4428331301109054  0.5534624587472550  0.3363677051859710   T   T   T
  0.3305691837867784  0.7926445473217285  0.4066168474929412   T   T   T
  0.4627267318340245  0.7399782375268131  0.4035351414025357   T   T   T
 
  0.00000000E+00  0.00000000E+00  0.00000000E+00
  0.00000000E+00  0.00000000E+00  0.00000000E+00
  0.00000000E+00  0.00000000E+00  0.00000000E+00
  0.00000000E+00  0.00000000E+00  0.00000000E+00
  0.00000000E+00  0.00000000E+00  0.00000000E+00
  0.00000000E+00  0.00000000E+00  0.00000000E+00
  0.00000000E+00  0.00000000E+00  0.00000000E+00
  0.00000000E+00  0.00000000E+00  0.00000000E+00
  0.00000000E+00  0.00000000E+00  0.00000000E+00
  0.00000000E+00  0.00000000E+00  0.00000000E+00
  0.00000000E+00  0.00000000E+00  0.00000000E+00
  0.00000000E+00  0.00000000E+00  0.00000000E+00
  0.00000000E+00  0.00000000E+00  0.00000000E+00
  0.00000000E+00  0.00000000E+00  0.00000000E+00
  0.00000000E+00  0.00000000E+00  0.00000000E+00
  0.00000000E+00  0.00000000E+00  0.00000000E+00
  0.00000000E+00  0.00000000E+00  0.00000000E+00
  0.00000000E+00  0.00000000E+00  0.00000000E+00
  0.00000000E+00  0.00000000E+00  0.00000000E+00
  0.00000000E+00  0.00000000E+00  0.00000000E+00
  0.00000000E+00  0.00000000E+00  0.00000000E+00
  0.00000000E+00  0.00000000E+00  0.00000000E+00
  0.00000000E+00  0.00000000E+00  0.00000000E+00
  0.00000000E+00  0.00000000E+00  0.00000000E+00
  0.00000000E+00  0.00000000E+00  0.00000000E+00
  0.00000000E+00  0.00000000E+00  0.00000000E+00
  0.00000000E+00  0.00000000E+00  0.00000000E+00
  0.00000000E+00  0.00000000E+00  0.00000000E+00
  0.00000000E+00  0.00000000E+00  0.00000000E+00
  0.00000000E+00  0.00000000E+00  0.00000000E+00
  0.00000000E+00  0.00000000E+00  0.00000000E+00
  0.00000000E+00  0.00000000E+00  0.00000000E+00
  0.00000000E+00  0.00000000E+00  0.00000000E+00
  0.00000000E+00  0.00000000E+00  0.00000000E+00
  0.00000000E+00  0.00000000E+00  0.00000000E+00
  0.00000000E+00  0.00000000E+00  0.00000000E+00
  0.00000000E+00  0.00000000E+00  0.00000000E+00
  0.00000000E+00  0.00000000E+00  0.00000000E+00
  0.00000000E+00  0.00000000E+00  0.00000000E+00
  0.00000000E+00  0.00000000E+00  0.00000000E+00
  0.00000000E+00  0.00000000E+00  0.00000000E+00
  0.00000000E+00  0.00000000E+00  0.00000000E+00
  0.00000000E+00  0.00000000E+00  0.00000000E+00
  0.00000000E+00  0.00000000E+00  0.00000000E+00
  0.00000000E+00  0.00000000E+00  0.00000000E+00
  0.00000000E+00  0.00000000E+00  0.00000000E+00
  0.00000000E+00  0.00000000E+00  0.00000000E+00
  0.00000000E+00  0.00000000E+00  0.00000000E+00
  0.00000000E+00  0.00000000E+00  0.00000000E+00
  0.00000000E+00  0.00000000E+00  0.00000000E+00
  0.00000000E+00  0.00000000E+00  0.00000000E+00
  0.00000000E+00  0.00000000E+00  0.00000000E+00
  0.00000000E+00  0.00000000E+00  0.00000000E+00
  0.00000000E+00  0.00000000E+00  0.00000000E+00
  0.00000000E+00  0.00000000E+00  0.00000000E+00
  0.00000000E+00  0.00000000E+00  0.00000000E+00
  0.00000000E+00  0.00000000E+00  0.00000000E+00
  0.00000000E+00  0.00000000E+00  0.00000000E+00
  0.00000000E+00  0.00000000E+00  0.00000000E+00
  0.00000000E+00  0.00000000E+00  0.00000000E+00
  0.00000000E+00  0.00000000E+00  0.00000000E+00
  0.00000000E+00  0.00000000E+00  0.00000000E+00
  0.00000000E+00  0.00000000E+00  0.00000000E+00
