Mg   O    H                             
   1.00000000000000     
     9.5557527542000003    0.0000000000000000    0.0000000000000000
    -4.7778763771000001    8.2755246374000002    0.0000000000000000
     0.0000000000000000    0.0000000000000000   32.6250953674000002
   Mg   O    H 
    45     6    12
Selective dynamics
Direct
  0.0000000000000000  0.0000000000000000  0.0000000000000000   F   F   F
  0.9997969019311619  0.0018895498380453  0.1582242339522059   T   T   T
  0.0023664906746542  0.0138861328634247  0.3294799697471459   T   T   T
  0.0000000098065698  0.3333333613114178  0.0000000000000000   F   F   F
  0.0002717438099573  0.3362981159347075  0.1580269474993104   T   T   T
  0.9959018557682596  0.3374541031850622  0.3123757168768754   T   T   T
  0.0000000196131396  0.6666667226228356  0.0000000000000000   F   F   F
  0.0012648291270953  0.6702049898642911  0.1574238720849427   T   T   T
  0.0002841150363863  0.6734264827954578  0.3146465270924421   T   T   T
  0.3333333416982782  0.0000000000000000  0.0000000000000000   F   F   F
  0.3332911643562790  0.0017018540038885  0.1575624837373202   T   T   T
  0.3287925060055058  0.0072521530019460  0.3099569820378574   T   T   T
  0.3333333515048480  0.3333333613114178  0.0000000000000000   F   F   F
  0.3320074329428926  0.3333990772267961  0.1571446312067692   T   T   T
  0.3239556745465176  0.3335428326003056  0.3131993500795887   T   T   T
  0.3333333597416868  0.6666667226228356  0.0000000000000000   F   F   F
  0.3326354952131039  0.6705993491856529  0.1580206646768219   T   T   T
  0.3224729280301638  0.6739251882905459  0.3303967244823987   T   T   T
  0.6666666832919077  0.0000000000000000  0.0000000000000000   F   F   F
  0.6653668085030436  0.0013190025144060  0.1579530548735237   T   T   T
  0.6689818974538403  0.0086286844609590  0.3143454970290389   T   T   T
  0.6666666806452426  0.3333333613114178  0.0000000000000000   F   F   F
  0.6662946495974514  0.3351238780359963  0.1583322111246248   T   T   T
  0.6546359720204386  0.3239645801609249  0.3327436810484818   T   T   T
  0.6666667030096960  0.6666667226228356  0.0000000000000000   F   F   F
  0.6682603215314473  0.6701463002529495  0.1569862566008242   T   T   T
  0.6611363540238161  0.6779611014624174  0.3136268668983178   T   T   T
  0.1111111284960415  0.2222222216206760  0.0798214519428555   F   F   F
  0.1093696700192715  0.2241475499927095  0.2363765212497284   T   T   T
  0.1111111350571008  0.5555556118124798  0.0798214519428555   F   F   F
  0.1143320482296973  0.5621583849380168  0.2375921003685657   T   T   T
  0.1111111554345570  0.8888889442433907  0.0798214519428555   F   F   F
  0.1065359261438557  0.8921943896201787  0.2363968747990058   T   T   T
  0.4444445023215593  0.2222222216206760  0.0798214519428555   F   F   F
  0.4496191766114366  0.2333018715258637  0.2368669364214195   T   T   T
  0.4444445016618417  0.5555556118124798  0.0798214519428555   F   F   F
  0.4453501153515329  0.5592247977080932  0.2335938453371680   T   T   T
  0.4444445131441270  0.8888889442433907  0.0798214519428555   F   F   F
  0.4436412598919559  0.8873851003042309  0.2375172709746045   T   T   T
  0.7777777941022634  0.2222222216206760  0.0798214519428555   F   F   F
  0.7756824323996266  0.2282868634347614  0.2365023348139902   T   T   T
  0.7777778058957736  0.5555556118124798  0.0798214519428555   F   F   F
  0.7775957260281705  0.5591238335748470  0.2350064618093798   T   T   T
  0.7777778387265144  0.8888889442433907  0.0798214519428555   F   F   F
  0.7805803153066095  0.8934685094967588  0.2378798694443516   T   T   T
  0.9935823434847754  0.9917397939143651  0.3959774645454864   T   T   T
  0.2787076865368905  0.9548762129562264  0.4123381013603960   T   T   T
  0.8749515463774685  0.2181273477766999  0.4147278816220876   T   T   T
  0.6163106044889077  0.2696749381377125  0.4006034716895991   T   T   T
  0.7740809329837062  0.5727356106264098  0.3453328241548985   T   T   T
  0.3514236389565801  0.7071671231333164  0.3958711623898604   T   T   T
  0.9599967648046980  0.0604558156535688  0.4105858158945547   T   T   T
  0.0881551929552785  0.9988488215112917  0.4100895875055106   T   T   T
  0.3828528165221294  0.0564250754545105  0.4097925574721816   T   T   T
  0.2411584745136066  0.9293192887374752  0.3831592010119522   T   T   T
  0.9735014890703044  0.3235382221160922  0.4180101270862756   T   T   T
  0.8662295543190004  0.2039523091773215  0.3839351217001947   T   T   T
  0.6125069089421112  0.3514472002642197  0.4178988812294391   T   T   T
  0.7044160976272080  0.2526624163190235  0.4116671167411207   T   T   T
  0.7928451248717482  0.6059539388679680  0.3742402939068661   T   T   T
  0.4428331301109085  0.5534624587472579  0.3363677051859713   T   T   T
  0.3305691837867761  0.7926445473217271  0.4066168474929418   T   T   T
  0.4627267318340229  0.7399782375268102  0.4035351414025375   T   T   T
 
  0.00000000E+00  0.00000000E+00  0.00000000E+00
  0.00000000E+00  0.00000000E+00  0.00000000E+00
  0.00000000E+00  0.00000000E+00  0.00000000E+00
  0.00000000E+00  0.00000000E+00  0.00000000E+00
  0.00000000E+00  0.00000000E+00  0.00000000E+00
  0.00000000E+00  0.00000000E+00  0.00000000E+00
  0.00000000E+00  0.00000000E+00  0.00000000E+00
  0.00000000E+00  0.00000000E+00  0.00000000E+00
  0.00000000E+00  0.00000000E+00  0.00000000E+00
  0.00000000E+00  0.00000000E+00  0.00000000E+00
  0.00000000E+00  0.00000000E+00  0.00000000E+00
  0.00000000E+00  0.00000000E+00  0.00000000E+00
  0.00000000E+00  0.00000000E+00  0.00000000E+00
  0.00000000E+00  0.00000000E+00  0.00000000E+00
  0.00000000E+00  0.00000000E+00  0.00000000E+00
  0.00000000E+00  0.00000000E+00  0.00000000E+00
  0.00000000E+00  0.00000000E+00  0.00000000E+00
  0.00000000E+00  0.00000000E+00  0.00000000E+00
  0.00000000E+00  0.00000000E+00  0.00000000E+00
  0.00000000E+00  0.00000000E+00  0.00000000E+00
  0.00000000E+00  0.00000000E+00  0.00000000E+00
  0.00000000E+00  0.00000000E+00  0.00000000E+00
  0.00000000E+00  0.00000000E+00  0.00000000E+00
  0.00000000E+00  0.00000000E+00  0.00000000E+00
  0.00000000E+00  0.00000000E+00  0.00000000E+00
  0.00000000E+00  0.00000000E+00  0.00000000E+00
  0.00000000E+00  0.00000000E+00  0.00000000E+00
  0.00000000E+00  0.00000000E+00  0.00000000E+00
  0.00000000E+00  0.00000000E+00  0.00000000E+00
  0.00000000E+00  0.00000000E+00  0.00000000E+00
  0.00000000E+00  0.00000000E+00  0.00000000E+00
  0.00000000E+00  0.00000000E+00  0.00000000E+00
  0.00000000E+00  0.00000000E+00  0.00000000E+00
  0.00000000E+00  0.00000000E+00  0.00000000E+00
  0.00000000E+00  0.00000000E+00  0.00000000E+00
  0.00000000E+00  0.00000000E+00  0.00000000E+00
  0.00000000E+00  0.00000000E+00  0.00000000E+00
  0.00000000E+00  0.00000000E+00  0.00000000E+00
  0.00000000E+00  0.00000000E+00  0.00000000E+00
  0.00000000E+00  0.00000000E+00  0.00000000E+00
  0.00000000E+00  0.00000000E+00  0.00000000E+00
  0.00000000E+00  0.00000000E+00  0.00000000E+00
  0.00000000E+00  0.00000000E+00  0.00000000E+00
  0.00000000E+00  0.00000000E+00  0.00000000E+00
  0.00000000E+00  0.00000000E+00  0.00000000E+00
  0.00000000E+00  0.00000000E+00  0.00000000E+00
  0.00000000E+00  0.00000000E+00  0.00000000E+00
  0.00000000E+00  0.00000000E+00  0.00000000E+00
  0.00000000E+00  0.00000000E+00  0.00000000E+00
  0.00000000E+00  0.00000000E+00  0.00000000E+00
  0.00000000E+00  0.00000000E+00  0.00000000E+00
  0.00000000E+00  0.00000000E+00  0.00000000E+00
  0.00000000E+00  0.00000000E+00  0.00000000E+00
  0.00000000E+00  0.00000000E+00  0.00000000E+00
  0.00000000E+00  0.00000000E+00  0.00000000E+00
  0.00000000E+00  0.00000000E+00  0.00000000E+00
  0.00000000E+00  0.00000000E+00  0.00000000E+00
  0.00000000E+00  0.00000000E+00  0.00000000E+00
  0.00000000E+00  0.00000000E+00  0.00000000E+00
  0.00000000E+00  0.00000000E+00  0.00000000E+00
  0.00000000E+00  0.00000000E+00  0.00000000E+00
  0.00000000E+00  0.00000000E+00  0.00000000E+00
  0.00000000E+00  0.00000000E+00  0.00000000E+00
