Mg   O    H                             
   1.00000000000000     
     9.5557527542000003    0.0000000000000000    0.0000000000000000
    -4.7778763771000001    8.2755246374000002    0.0000000000000000
     0.0000000000000000    0.0000000000000000   32.6250953674000002
   Mg   O    H 
    45     6    12
Selective dynamics
Direct
  0.0000000000000000  0.0000000000000000  0.0000000000000000   F   F   F
  0.0012725644294633  0.0015605169701303  0.1593618339400180   T   T   T
  0.0003958218345090  0.0018746153791724  0.3338035503752508   T   T   T
  0.0000000098065698  0.3333333613114178  0.0000000000000000   F   F   F
  0.0017796318909902  0.3349197686808623  0.1586150072776320   T   T   T
  0.0021173562842662  0.3370671199475836  0.3132509977840385   T   T   T
  0.0000000196131396  0.6666667226228356  0.0000000000000000   F   F   F
  0.0011666090068445  0.6676770602773843  0.1585745198943869   T   T   T
  0.0032445072271585  0.6712682237222651  0.3169518851022772   T   T   T
  0.3333333416982782  0.0000000000000000  0.0000000000000000   F   F   F
  0.3351014263072969  0.0015731613775856  0.1585850835650007   T   T   T
  0.3354728831959122  0.0035124889252458  0.3130893712888749   T   T   T
  0.3333333515048480  0.3333333613114178  0.0000000000000000   F   F   F
  0.3345247522697363  0.3344338955361295  0.1585674807230006   T   T   T
  0.3368684395117185  0.3380574138183405  0.3167418020750006   T   T   T
  0.3333333597416868  0.6666667226228356  0.0000000000000000   F   F   F
  0.3345985383583070  0.6681465397967870  0.1593619022711508   T   T   T
  0.3330538065432265  0.6681102837281259  0.3337192554473916   T   T   T
  0.6666666832919077  0.0000000000000000  0.0000000000000000   F   F   F
  0.6679034016629686  0.0010629867923981  0.1585613659001766   T   T   T
  0.6701338046312273  0.0043479101082227  0.3168464912655296   T   T   T
  0.6666666806452426  0.3333333613114178  0.0000000000000000   F   F   F
  0.6679874708182538  0.3349066049572258  0.1593637968696910   T   T   T
  0.6661690402864551  0.3342537148348512  0.3336625928635755   T   T   T
  0.6666667030096960  0.6666667226228356  0.0000000000000000   F   F   F
  0.6684719830022843  0.6682514172443916  0.1586390549140546   T   T   T
  0.6689686493960920  0.6703853674411988  0.3136385417355285   T   T   T
  0.1111111284960415  0.2222222216207186  0.0798214519428555   F   F   F
  0.1132098682793981  0.2211550055570939  0.2382978812406051   T   T   T
  0.1111111350571008  0.5555556118124798  0.0798214519428555   F   F   F
  0.1168148842944561  0.5611914489863494  0.2382034572770664   T   T   T
  0.1111111554346138  0.8888889442435541  0.0798214519428555   F   F   F
  0.1108174715077936  0.8910574101929072  0.2374821083830128   T   T   T
  0.4444445023215593  0.2222222216207186  0.0798214519428555   F   F   F
  0.4501057109681668  0.2277925440346706  0.2380977640738138   T   T   T
  0.4444445016618417  0.5555556118124798  0.0798214519428555   F   F   F
  0.4444494795843497  0.5580518877618417  0.2375896698785382   T   T   T
  0.4444445131441839  0.8888889442435541  0.0798214519428555   F   F   F
  0.4466730901243992  0.8878723704105056  0.2382095352690854   T   T   T
  0.7777777941022634  0.2222222216207186  0.0798214519428555   F   F   F
  0.7775478053079681  0.2244553184123248  0.2375215256532783   T   T   T
  0.7777778058957736  0.5555556118124798  0.0798214519428555   F   F   F
  0.7798073520064221  0.5544896112772193  0.2384005105718359   T   T   T
  0.7777778387265144  0.8888889442435541  0.0798214519428555   F   F   F
  0.7834302182815733  0.8942620923572022  0.2382384473390999   T   T   T
  0.9972460531631882  0.9992542390769046  0.3999788399891600   T   T   T
  0.2584567416578665  0.9262432798675064  0.4165605694212431   T   T   T
  0.9209961492688876  0.2573470215007134  0.4165967613893500   T   T   T
  0.6573856218458616  0.3253526107979710  0.4000258276910245   T   T   T
  0.5826175236686097  0.5835215973657171  0.4171110649051073   T   T   T
  0.3258175822172689  0.6623631824914824  0.4000148108721717   T   T   T
  0.9852991356763567  0.0851634237401271  0.4135053803624871   T   T   T
  0.0838914846789649  0.9893764708075636  0.4137472093481023   T   T   T
  0.3616158479008078  0.0284006065694911  0.4155032542224077   T   T   T
  0.2303256677059196  0.8998897882529491  0.3869364832516666   T   T   T
  0.0230434332290201  0.3606377176471014  0.4157245727663437   T   T   T
  0.8939912746226213  0.2311297494872733  0.3869092541813686   T   T   T
  0.6450042215634539  0.4108929027839565  0.4136476852356381   T   T   T
  0.7445800255466040  0.3161344434406956  0.4137376488527877   T   T   T
  0.6855742670683256  0.6859133964539623  0.4164802668244434   T   T   T
  0.5560066458176109  0.5587377737370574  0.3873488884709602   T   T   T
  0.3165033491199694  0.7499737676090987  0.4134765562471898   T   T   T
  0.4107029230803718  0.6498568006978473  0.4139061284755456   T   T   T
 
  0.00000000E+00  0.00000000E+00  0.00000000E+00
  0.00000000E+00  0.00000000E+00  0.00000000E+00
  0.00000000E+00  0.00000000E+00  0.00000000E+00
  0.00000000E+00  0.00000000E+00  0.00000000E+00
  0.00000000E+00  0.00000000E+00  0.00000000E+00
  0.00000000E+00  0.00000000E+00  0.00000000E+00
  0.00000000E+00  0.00000000E+00  0.00000000E+00
  0.00000000E+00  0.00000000E+00  0.00000000E+00
  0.00000000E+00  0.00000000E+00  0.00000000E+00
  0.00000000E+00  0.00000000E+00  0.00000000E+00
  0.00000000E+00  0.00000000E+00  0.00000000E+00
  0.00000000E+00  0.00000000E+00  0.00000000E+00
  0.00000000E+00  0.00000000E+00  0.00000000E+00
  0.00000000E+00  0.00000000E+00  0.00000000E+00
  0.00000000E+00  0.00000000E+00  0.00000000E+00
  0.00000000E+00  0.00000000E+00  0.00000000E+00
  0.00000000E+00  0.00000000E+00  0.00000000E+00
  0.00000000E+00  0.00000000E+00  0.00000000E+00
  0.00000000E+00  0.00000000E+00  0.00000000E+00
  0.00000000E+00  0.00000000E+00  0.00000000E+00
  0.00000000E+00  0.00000000E+00  0.00000000E+00
  0.00000000E+00  0.00000000E+00  0.00000000E+00
  0.00000000E+00  0.00000000E+00  0.00000000E+00
  0.00000000E+00  0.00000000E+00  0.00000000E+00
  0.00000000E+00  0.00000000E+00  0.00000000E+00
  0.00000000E+00  0.00000000E+00  0.00000000E+00
  0.00000000E+00  0.00000000E+00  0.00000000E+00
  0.00000000E+00  0.00000000E+00  0.00000000E+00
  0.00000000E+00  0.00000000E+00  0.00000000E+00
  0.00000000E+00  0.00000000E+00  0.00000000E+00
  0.00000000E+00  0.00000000E+00  0.00000000E+00
  0.00000000E+00  0.00000000E+00  0.00000000E+00
  0.00000000E+00  0.00000000E+00  0.00000000E+00
  0.00000000E+00  0.00000000E+00  0.00000000E+00
  0.00000000E+00  0.00000000E+00  0.00000000E+00
  0.00000000E+00  0.00000000E+00  0.00000000E+00
  0.00000000E+00  0.00000000E+00  0.00000000E+00
  0.00000000E+00  0.00000000E+00  0.00000000E+00
  0.00000000E+00  0.00000000E+00  0.00000000E+00
  0.00000000E+00  0.00000000E+00  0.00000000E+00
  0.00000000E+00  0.00000000E+00  0.00000000E+00
  0.00000000E+00  0.00000000E+00  0.00000000E+00
  0.00000000E+00  0.00000000E+00  0.00000000E+00
  0.00000000E+00  0.00000000E+00  0.00000000E+00
  0.00000000E+00  0.00000000E+00  0.00000000E+00
  0.00000000E+00  0.00000000E+00  0.00000000E+00
  0.00000000E+00  0.00000000E+00  0.00000000E+00
  0.00000000E+00  0.00000000E+00  0.00000000E+00
  0.00000000E+00  0.00000000E+00  0.00000000E+00
  0.00000000E+00  0.00000000E+00  0.00000000E+00
  0.00000000E+00  0.00000000E+00  0.00000000E+00
  0.00000000E+00  0.00000000E+00  0.00000000E+00
  0.00000000E+00  0.00000000E+00  0.00000000E+00
  0.00000000E+00  0.00000000E+00  0.00000000E+00
  0.00000000E+00  0.00000000E+00  0.00000000E+00
  0.00000000E+00  0.00000000E+00  0.00000000E+00
  0.00000000E+00  0.00000000E+00  0.00000000E+00
  0.00000000E+00  0.00000000E+00  0.00000000E+00
  0.00000000E+00  0.00000000E+00  0.00000000E+00
  0.00000000E+00  0.00000000E+00  0.00000000E+00
  0.00000000E+00  0.00000000E+00  0.00000000E+00
  0.00000000E+00  0.00000000E+00  0.00000000E+00
  0.00000000E+00  0.00000000E+00  0.00000000E+00
