Mg   O    H                             
   1.00000000000000     
     9.5557527542000003    0.0000000000000000    0.0000000000000000
    -4.7778763771000001    8.2755246374000002    0.0000000000000000
     0.0000000000000000    0.0000000000000000   32.6250953674000002
   Mg   O    H 
    45     6    12
Selective dynamics
Direct
  0.0000000000000000  0.0000000000000000  0.0000000000000000   F   F   F
  0.9974309104269423  0.9991371877191426  0.1585498108850985   T   T   T
  0.9977404490876935  0.0040170514986215  0.3295863693599586   T   T   T
  0.0000000098065698  0.3333333613114178  0.0000000000000000   F   F   F
  0.9987495816775720  0.3345141953484259  0.1573246679178695   T   T   T
  0.9883839165903439  0.3329955360396752  0.3114739738661072   T   T   T
  0.0000000196131396  0.6666667226228356  0.0000000000000000   F   F   F
  0.9972155296437748  0.6670028988439043  0.1581341595286219   T   T   T
  0.0016826945864139  0.6723681909254182  0.3150080240326858   T   T   T
  0.3333333416982782  0.0000000000000000  0.0000000000000000   F   F   F
  0.3307798368676771  0.9994920152220743  0.1576913490047716   T   T   T
  0.3260818818309730  0.9967777751816129  0.3116093694634117   T   T   T
  0.3333333515048480  0.3333333613114178  0.0000000000000000   F   F   F
  0.3312534449020745  0.3322831270882105  0.1570606068101981   T   T   T
  0.3162328522544726  0.3205676547677143  0.3111921405378197   T   T   T
  0.3333333597416868  0.6666667226228356  0.0000000000000000   F   F   F
  0.3309596041429685  0.6667825613971559  0.1582726758272628   T   T   T
  0.3160122800727336  0.6677452001307316  0.3307802015743135   T   T   T
  0.6666666832919077  0.0000000000000000  0.0000000000000000   F   F   F
  0.6647575318431933  0.9985551195813684  0.1577514338652222   T   T   T
  0.6639907769826792  0.0086802531646200  0.3137599461804825   T   T   T
  0.6666666806452426  0.3333333613114178  0.0000000000000000   F   F   F
  0.6647896040163843  0.3352950734762601  0.1586749135702306   T   T   T
  0.6588626859969082  0.3232259786138627  0.3270970583511996   T   T   T
  0.6666667030096960  0.6666667226228356  0.0000000000000000   F   F   F
  0.6664868933428423  0.6669170025018047  0.1589208176526000   T   T   T
  0.6664578120269624  0.6737065100997341  0.3228792531371809   T   T   T
  0.1111111284960415  0.2222222216206760  0.0798214519428555   F   F   F
  0.1048140356464415  0.2208100923557126  0.2353537624737072   T   T   T
  0.1111111350571008  0.5555556118124798  0.0798214519428555   F   F   F
  0.1115308697231683  0.5587148778101820  0.2366442516375287   T   T   T
  0.1111111554345570  0.8888889442433907  0.0798214519428555   F   F   F
  0.1056956000960980  0.8896235742502228  0.2360340120503679   T   T   T
  0.4444445023215593  0.2222222216206760  0.0798214519428555   F   F   F
  0.4437126897846753  0.2242558498941207  0.2362382516480395   T   T   T
  0.4444445016618417  0.5555556118124798  0.0798214519428555   F   F   F
  0.4420758086856438  0.5560229240176824  0.2354631657841537   T   T   T
  0.4444445131441270  0.8888889442433907  0.0798214519428555   F   F   F
  0.4407834019309149  0.8846207885251971  0.2365755446303268   T   T   T
  0.7777777941022634  0.2222222216206760  0.0798214519428555   F   F   F
  0.7719506374325888  0.2219394470881255  0.2347026289184697   T   T   T
  0.7777778058957736  0.5555556118124798  0.0798214519428555   F   F   F
  0.7695855577785480  0.5514964435643748  0.2410847598222290   T   T   T
  0.7777778387265144  0.8888889442433907  0.0798214519428555   F   F   F
  0.7756567787906192  0.8870244629034048  0.2401171622993203   T   T   T
  0.9870874395452987  0.9981323401493185  0.3941679391587414   T   T   T
  0.2635354213353196  0.9936624574798572  0.4172166143490372   T   T   T
  0.9093710573004472  0.2348768244095609  0.4157439970237462   T   T   T
  0.6268084690065621  0.3640031339475982  0.3893494613167476   T   T   T
  0.6367153428625656  0.6392372292553858  0.3841854084983183   T   T   T
  0.3763039168367328  0.6563781421249715  0.3912431496204150   T   T   T
  0.9661418495403495  0.0806524469349270  0.4068643043879945   T   T   T
  0.0845373758874786  0.0048225715388810  0.4073435476604033   T   T   T
  0.3609091811334935  0.0980112866366980  0.4119436516704269   T   T   T
  0.2533830409536577  0.9296833419635959  0.3924033487050096   T   T   T
  0.0093976696309852  0.3393013623219829  0.4138236271526523   T   T   T
  0.8604841048616336  0.2212973945396897  0.3880631990276626   T   T   T
  0.6316504828830531  0.4751268053543285  0.3916011990948931   T   T   T
  0.7032449624631099  0.3632527863094950  0.4091400300806853   T   T   T
  0.7287218667476623  0.7243728241495972  0.3990808402981543   T   T   T
  0.4305563952539657  0.5525731762683463  0.3171728229346513   T   T   T
  0.3841938735679022  0.7369293678114843  0.4108669009286459   T   T   T
  0.4824935197526656  0.6512295242492243  0.3927248498262088   T   T   T
 
  0.00000000E+00  0.00000000E+00  0.00000000E+00
  0.00000000E+00  0.00000000E+00  0.00000000E+00
  0.00000000E+00  0.00000000E+00  0.00000000E+00
  0.00000000E+00  0.00000000E+00  0.00000000E+00
  0.00000000E+00  0.00000000E+00  0.00000000E+00
  0.00000000E+00  0.00000000E+00  0.00000000E+00
  0.00000000E+00  0.00000000E+00  0.00000000E+00
  0.00000000E+00  0.00000000E+00  0.00000000E+00
  0.00000000E+00  0.00000000E+00  0.00000000E+00
  0.00000000E+00  0.00000000E+00  0.00000000E+00
  0.00000000E+00  0.00000000E+00  0.00000000E+00
  0.00000000E+00  0.00000000E+00  0.00000000E+00
  0.00000000E+00  0.00000000E+00  0.00000000E+00
  0.00000000E+00  0.00000000E+00  0.00000000E+00
  0.00000000E+00  0.00000000E+00  0.00000000E+00
  0.00000000E+00  0.00000000E+00  0.00000000E+00
  0.00000000E+00  0.00000000E+00  0.00000000E+00
  0.00000000E+00  0.00000000E+00  0.00000000E+00
  0.00000000E+00  0.00000000E+00  0.00000000E+00
  0.00000000E+00  0.00000000E+00  0.00000000E+00
  0.00000000E+00  0.00000000E+00  0.00000000E+00
  0.00000000E+00  0.00000000E+00  0.00000000E+00
  0.00000000E+00  0.00000000E+00  0.00000000E+00
  0.00000000E+00  0.00000000E+00  0.00000000E+00
  0.00000000E+00  0.00000000E+00  0.00000000E+00
  0.00000000E+00  0.00000000E+00  0.00000000E+00
  0.00000000E+00  0.00000000E+00  0.00000000E+00
  0.00000000E+00  0.00000000E+00  0.00000000E+00
  0.00000000E+00  0.00000000E+00  0.00000000E+00
  0.00000000E+00  0.00000000E+00  0.00000000E+00
  0.00000000E+00  0.00000000E+00  0.00000000E+00
  0.00000000E+00  0.00000000E+00  0.00000000E+00
  0.00000000E+00  0.00000000E+00  0.00000000E+00
  0.00000000E+00  0.00000000E+00  0.00000000E+00
  0.00000000E+00  0.00000000E+00  0.00000000E+00
  0.00000000E+00  0.00000000E+00  0.00000000E+00
  0.00000000E+00  0.00000000E+00  0.00000000E+00
  0.00000000E+00  0.00000000E+00  0.00000000E+00
  0.00000000E+00  0.00000000E+00  0.00000000E+00
  0.00000000E+00  0.00000000E+00  0.00000000E+00
  0.00000000E+00  0.00000000E+00  0.00000000E+00
  0.00000000E+00  0.00000000E+00  0.00000000E+00
  0.00000000E+00  0.00000000E+00  0.00000000E+00
  0.00000000E+00  0.00000000E+00  0.00000000E+00
  0.00000000E+00  0.00000000E+00  0.00000000E+00
  0.00000000E+00  0.00000000E+00  0.00000000E+00
  0.00000000E+00  0.00000000E+00  0.00000000E+00
  0.00000000E+00  0.00000000E+00  0.00000000E+00
  0.00000000E+00  0.00000000E+00  0.00000000E+00
  0.00000000E+00  0.00000000E+00  0.00000000E+00
  0.00000000E+00  0.00000000E+00  0.00000000E+00
  0.00000000E+00  0.00000000E+00  0.00000000E+00
  0.00000000E+00  0.00000000E+00  0.00000000E+00
  0.00000000E+00  0.00000000E+00  0.00000000E+00
  0.00000000E+00  0.00000000E+00  0.00000000E+00
  0.00000000E+00  0.00000000E+00  0.00000000E+00
  0.00000000E+00  0.00000000E+00  0.00000000E+00
  0.00000000E+00  0.00000000E+00  0.00000000E+00
  0.00000000E+00  0.00000000E+00  0.00000000E+00
  0.00000000E+00  0.00000000E+00  0.00000000E+00
  0.00000000E+00  0.00000000E+00  0.00000000E+00
  0.00000000E+00  0.00000000E+00  0.00000000E+00
  0.00000000E+00  0.00000000E+00  0.00000000E+00
