Mg   O    H                             
   1.00000000000000     
     9.5557527542000003    0.0000000000000000    0.0000000000000000
    -4.7778763771000001    8.2755246374000002    0.0000000000000000
     0.0000000000000000    0.0000000000000000   32.6250953674000002
   Mg   O    H 
    45     6    12
Selective dynamics
Direct
  0.0000000000000000  0.0000000000000000  0.0000000000000000   F   F   F
  0.9974309104269399  0.9991371877191424  0.1585498108850977   T   T   T
  0.9977404490876933  0.0040170514986228  0.3295863693599550   T   T   T
  0.0000000098065698  0.3333333613114178  0.0000000000000000   F   F   F
  0.9987495816775697  0.3345141953484244  0.1573246679178713   T   T   T
  0.9883839165903443  0.3329955360396746  0.3114739738661089   T   T   T
  0.0000000196131396  0.6666667226228356  0.0000000000000000   F   F   F
  0.9972155296437777  0.6670028988439035  0.1581341595286200   T   T   T
  0.0016826945864157  0.6723681909254187  0.3150080240326855   T   T   T
  0.3333333416982782  0.0000000000000000  0.0000000000000000   F   F   F
  0.3307798368676781  0.9994920152220717  0.1576913490047685   T   T   T
  0.3260818818309754  0.9967777751816116  0.3116093694634136   T   T   T
  0.3333333515048480  0.3333333613114178  0.0000000000000000   F   F   F
  0.3312534449020774  0.3322831270882112  0.1570606068101994   T   T   T
  0.3162328522544715  0.3205676547677140  0.3111921405378220   T   T   T
  0.3333333597416868  0.6666667226228356  0.0000000000000000   F   F   F
  0.3309596041429704  0.6667825613971534  0.1582726758272637   T   T   T
  0.3160122800727326  0.6677452001307306  0.3307802015743107   T   T   T
  0.6666666832919077  0.0000000000000000  0.0000000000000000   F   F   F
  0.6647575318431961  0.9985551195813678  0.1577514338652197   T   T   T
  0.6639907769826771  0.0086802531646207  0.3137599461804848   T   T   T
  0.6666666806452426  0.3333333613114178  0.0000000000000000   F   F   F
  0.6647896040163823  0.3352950734762633  0.1586749135702300   T   T   T
  0.6588626859969079  0.3232259786138629  0.3270970583511983   T   T   T
  0.6666667030096960  0.6666667226228356  0.0000000000000000   F   F   F
  0.6664868933428457  0.6669170025018037  0.1589208176525998   T   T   T
  0.6664578120269654  0.6737065100997333  0.3228792531371802   T   T   T
  0.1111111284960415  0.2222222216206760  0.0798214519428555   F   F   F
  0.1048140356464443  0.2208100923557146  0.2353537624737106   T   T   T
  0.1111111350571008  0.5555556118124798  0.0798214519428555   F   F   F
  0.1115308697231684  0.5587148778101816  0.2366442516375314   T   T   T
  0.1111111554345570  0.8888889442433907  0.0798214519428555   F   F   F
  0.1056956000961004  0.8896235742502216  0.2360340120503709   T   T   T
  0.4444445023215593  0.2222222216206760  0.0798214519428555   F   F   F
  0.4437126897846752  0.2242558498941185  0.2362382516480421   T   T   T
  0.4444445016618417  0.5555556118124798  0.0798214519428555   F   F   F
  0.4420758086856454  0.5560229240176838  0.2354631657841509   T   T   T
  0.4444445131441270  0.8888889442433907  0.0798214519428555   F   F   F
  0.4407834019309138  0.8846207885251990  0.2365755446303280   T   T   T
  0.7777777941022634  0.2222222216206760  0.0798214519428555   F   F   F
  0.7719506374325866  0.2219394470881279  0.2347026289184679   T   T   T
  0.7777778058957736  0.5555556118124798  0.0798214519428555   F   F   F
  0.7695855577785491  0.5514964435643760  0.2410847598222287   T   T   T
  0.7777778387265144  0.8888889442433907  0.0798214519428555   F   F   F
  0.7756567787906211  0.8870244629034015  0.2401171622993182   T   T   T
  0.9870874395452980  0.9981323401493207  0.3941679391587384   T   T   T
  0.2635354213353218  0.9936624574798599  0.4172166143490387   T   T   T
  0.9093710573004504  0.2348768244095591  0.4157439970237476   T   T   T
  0.6268084690065626  0.3640031339475965  0.3893494613167479   T   T   T
  0.6367153428625655  0.6392372292553891  0.3841854084983184   T   T   T
  0.3763039168367301  0.6563781421249749  0.3912431496204151   T   T   T
  0.9661418495403480  0.0806524469349290  0.4068643043879916   T   T   T
  0.0845373758874766  0.0048225715388835  0.4073435476604019   T   T   T
  0.3609091811334970  0.0980112866366983  0.4119436516704243   T   T   T
  0.2533830409536593  0.9296833419635961  0.3924033487050129   T   T   T
  0.0093976696309880  0.3393013623219796  0.4138236271526522   T   T   T
  0.8604841048616302  0.2212973945396924  0.3880631990276653   T   T   T
  0.6316504828830505  0.4751268053543314  0.3916011990948896   T   T   T
  0.7032449624631124  0.3632527863094917  0.4091400300806835   T   T   T
  0.7287218667476615  0.7243728241495989  0.3990808402981509   T   T   T
  0.4305563952539689  0.5525731762683450  0.3171728229346499   T   T   T
  0.3841938735679046  0.7369293678114830  0.4108669009286485   T   T   T
  0.4824935197526676  0.6512295242492252  0.3927248498262061   T   T   T
 
  0.00000000E+00  0.00000000E+00  0.00000000E+00
  0.00000000E+00  0.00000000E+00  0.00000000E+00
  0.00000000E+00  0.00000000E+00  0.00000000E+00
  0.00000000E+00  0.00000000E+00  0.00000000E+00
  0.00000000E+00  0.00000000E+00  0.00000000E+00
  0.00000000E+00  0.00000000E+00  0.00000000E+00
  0.00000000E+00  0.00000000E+00  0.00000000E+00
  0.00000000E+00  0.00000000E+00  0.00000000E+00
  0.00000000E+00  0.00000000E+00  0.00000000E+00
  0.00000000E+00  0.00000000E+00  0.00000000E+00
  0.00000000E+00  0.00000000E+00  0.00000000E+00
  0.00000000E+00  0.00000000E+00  0.00000000E+00
  0.00000000E+00  0.00000000E+00  0.00000000E+00
  0.00000000E+00  0.00000000E+00  0.00000000E+00
  0.00000000E+00  0.00000000E+00  0.00000000E+00
  0.00000000E+00  0.00000000E+00  0.00000000E+00
  0.00000000E+00  0.00000000E+00  0.00000000E+00
  0.00000000E+00  0.00000000E+00  0.00000000E+00
  0.00000000E+00  0.00000000E+00  0.00000000E+00
  0.00000000E+00  0.00000000E+00  0.00000000E+00
  0.00000000E+00  0.00000000E+00  0.00000000E+00
  0.00000000E+00  0.00000000E+00  0.00000000E+00
  0.00000000E+00  0.00000000E+00  0.00000000E+00
  0.00000000E+00  0.00000000E+00  0.00000000E+00
  0.00000000E+00  0.00000000E+00  0.00000000E+00
  0.00000000E+00  0.00000000E+00  0.00000000E+00
  0.00000000E+00  0.00000000E+00  0.00000000E+00
  0.00000000E+00  0.00000000E+00  0.00000000E+00
  0.00000000E+00  0.00000000E+00  0.00000000E+00
  0.00000000E+00  0.00000000E+00  0.00000000E+00
  0.00000000E+00  0.00000000E+00  0.00000000E+00
  0.00000000E+00  0.00000000E+00  0.00000000E+00
  0.00000000E+00  0.00000000E+00  0.00000000E+00
  0.00000000E+00  0.00000000E+00  0.00000000E+00
  0.00000000E+00  0.00000000E+00  0.00000000E+00
  0.00000000E+00  0.00000000E+00  0.00000000E+00
  0.00000000E+00  0.00000000E+00  0.00000000E+00
  0.00000000E+00  0.00000000E+00  0.00000000E+00
  0.00000000E+00  0.00000000E+00  0.00000000E+00
  0.00000000E+00  0.00000000E+00  0.00000000E+00
  0.00000000E+00  0.00000000E+00  0.00000000E+00
  0.00000000E+00  0.00000000E+00  0.00000000E+00
  0.00000000E+00  0.00000000E+00  0.00000000E+00
  0.00000000E+00  0.00000000E+00  0.00000000E+00
  0.00000000E+00  0.00000000E+00  0.00000000E+00
  0.00000000E+00  0.00000000E+00  0.00000000E+00
  0.00000000E+00  0.00000000E+00  0.00000000E+00
  0.00000000E+00  0.00000000E+00  0.00000000E+00
  0.00000000E+00  0.00000000E+00  0.00000000E+00
  0.00000000E+00  0.00000000E+00  0.00000000E+00
  0.00000000E+00  0.00000000E+00  0.00000000E+00
  0.00000000E+00  0.00000000E+00  0.00000000E+00
  0.00000000E+00  0.00000000E+00  0.00000000E+00
  0.00000000E+00  0.00000000E+00  0.00000000E+00
  0.00000000E+00  0.00000000E+00  0.00000000E+00
  0.00000000E+00  0.00000000E+00  0.00000000E+00
  0.00000000E+00  0.00000000E+00  0.00000000E+00
  0.00000000E+00  0.00000000E+00  0.00000000E+00
  0.00000000E+00  0.00000000E+00  0.00000000E+00
  0.00000000E+00  0.00000000E+00  0.00000000E+00
  0.00000000E+00  0.00000000E+00  0.00000000E+00
  0.00000000E+00  0.00000000E+00  0.00000000E+00
  0.00000000E+00  0.00000000E+00  0.00000000E+00
