Mg   O    H                             
   1.00000000000000     
     9.5557527542000003    0.0000000000000000    0.0000000000000000
    -4.7778763771000001    8.2755246374000002    0.0000000000000000
     0.0000000000000000    0.0000000000000000   32.6250953674000002
   Mg   O    H 
    45     6    12
Selective dynamics
Direct
  0.0000000000000000  0.0000000000000000  0.0000000000000000   F   F   F
  0.9969346482357011  0.9984788714994366  0.1584012209043664   T   T   T
  0.9979405446396683  0.0035676848726283  0.3311991929455544   T   T   T
  0.0000000098065698  0.3333333613114178  0.0000000000000000   F   F   F
  0.9983237980347752  0.3336638403920205  0.1574144572384029   T   T   T
  0.9869769097031948  0.3316729233052840  0.3112926210859541   T   T   T
  0.0000000196131396  0.6666667226228356  0.0000000000000000   F   F   F
  0.9967651934402895  0.6657922298624257  0.1579704671213733   T   T   T
  0.9982133772603632  0.6730108092917177  0.3149276097566087   T   T   T
  0.3333333416982782  0.0000000000000000  0.0000000000000000   F   F   F
  0.3305877846700440  0.9985932233475268  0.1575339072384665   T   T   T
  0.3246442284353677  0.9975361991515612  0.3104318761377343   T   T   T
  0.3333333515048480  0.3333333613114178  0.0000000000000000   F   F   F
  0.3306064304853038  0.3313735028840412  0.1569050108960255   T   T   T
  0.3160488733117646  0.3214890512704756  0.3111553629108315   T   T   T
  0.3333333597416868  0.6666667226228356  0.0000000000000000   F   F   F
  0.3303031348895189  0.6661554653777202  0.1581230649809342   T   T   T
  0.3135608664187117  0.6676489404829056  0.3299410720009988   T   T   T
  0.6666666832919077  0.0000000000000000  0.0000000000000000   F   F   F
  0.6645685267570371  0.9976813087812388  0.1577996806077948   T   T   T
  0.6634083965545940  0.0068734736415124  0.3140682006276947   T   T   T
  0.6666666806452426  0.3333333613114178  0.0000000000000000   F   F   F
  0.6646258797131992  0.3345417689702046  0.1587070863572180   T   T   T
  0.6575790853354064  0.3221398961916506  0.3267190084960916   T   T   T
  0.6666667030096960  0.6666667226228356  0.0000000000000000   F   F   F
  0.6666212084426917  0.6664556299403586  0.1589448073429338   T   T   T
  0.6628174726345932  0.6737919302465514  0.3272536678678932   T   T   T
  0.1111111284960415  0.2222222216206760  0.0798214519428555   F   F   F
  0.1037518027036910  0.2189409904582860  0.2354899390248093   T   T   T
  0.1111111350571008  0.5555556118124798  0.0798214519428555   F   F   F
  0.1106841352187686  0.5576665628831634  0.2368143463639001   T   T   T
  0.1111111554345570  0.8888889442433907  0.0798214519428555   F   F   F
  0.1042475843167026  0.8874715831566675  0.2353893655121979   T   T   T
  0.4444445023215593  0.2222222216206760  0.0798214519428555   F   F   F
  0.4426320186098707  0.2235995114410585  0.2358846523601486   T   T   T
  0.4444445016618417  0.5555556118124798  0.0798214519428555   F   F   F
  0.4408160568558372  0.5546310148710916  0.2347997982317551   T   T   T
  0.4444445131441270  0.8888889442433907  0.0798214519428555   F   F   F
  0.4406509308961333  0.8829773865726338  0.2365546008781152   T   T   T
  0.7777777941022634  0.2222222216206760  0.0798214519428555   F   F   F
  0.7708214756619611  0.2200820593718831  0.2348015139599013   T   T   T
  0.7777778058957736  0.5555556118124798  0.0798214519428555   F   F   F
  0.7673345121241510  0.5499442120983957  0.2415549721900092   T   T   T
  0.7777778387265144  0.8888889442433907  0.0798214519428555   F   F   F
  0.7749269563061389  0.8844503140335576  0.2407982073808839   T   T   T
  0.9953929863721811  0.0048287880230689  0.3959390454376290   T   T   T
  0.2672343706734281  0.9718990701120163  0.4155448021626569   T   T   T
  0.9095126083795364  0.2384603660216271  0.4153208183000814   T   T   T
  0.6266332515970632  0.3599777667429436  0.3890086457298381   T   T   T
  0.6256031112660523  0.6320171443385334  0.3879732698322158   T   T   T
  0.3639428119754555  0.6675650576860548  0.3921269242666625   T   T   T
  0.9753228441914032  0.0878428785879635  0.4086246279357297   T   T   T
  0.0890899860621417  0.0062614604504390  0.4094901822034203   T   T   T
  0.3673613596776448  0.0751333763409860  0.4115165109048817   T   T   T
  0.2447414822013556  0.9215512368694405  0.3879361375961778   T   T   T
  0.0064625838314853  0.3450769121135409  0.4126358945854847   T   T   T
  0.8601506924348215  0.2185423657468704  0.3875271713700741   T   T   T
  0.6259946415826434  0.4680949761311766  0.3927259175339017   T   T   T
  0.7047182318448932  0.3593295966834091  0.4082692490508038   T   T   T
  0.7174610508825054  0.7113770795630998  0.4040191283765040   T   T   T
  0.4273914637038985  0.5491849969468632  0.3217580985193393   T   T   T
  0.3689109135317281  0.7528902463508089  0.4096305869590680   T   T   T
  0.4651082071656418  0.6586686760248739  0.3963776801588494   T   T   T
 
  0.00000000E+00  0.00000000E+00  0.00000000E+00
  0.00000000E+00  0.00000000E+00  0.00000000E+00
  0.00000000E+00  0.00000000E+00  0.00000000E+00
  0.00000000E+00  0.00000000E+00  0.00000000E+00
  0.00000000E+00  0.00000000E+00  0.00000000E+00
  0.00000000E+00  0.00000000E+00  0.00000000E+00
  0.00000000E+00  0.00000000E+00  0.00000000E+00
  0.00000000E+00  0.00000000E+00  0.00000000E+00
  0.00000000E+00  0.00000000E+00  0.00000000E+00
  0.00000000E+00  0.00000000E+00  0.00000000E+00
  0.00000000E+00  0.00000000E+00  0.00000000E+00
  0.00000000E+00  0.00000000E+00  0.00000000E+00
  0.00000000E+00  0.00000000E+00  0.00000000E+00
  0.00000000E+00  0.00000000E+00  0.00000000E+00
  0.00000000E+00  0.00000000E+00  0.00000000E+00
  0.00000000E+00  0.00000000E+00  0.00000000E+00
  0.00000000E+00  0.00000000E+00  0.00000000E+00
  0.00000000E+00  0.00000000E+00  0.00000000E+00
  0.00000000E+00  0.00000000E+00  0.00000000E+00
  0.00000000E+00  0.00000000E+00  0.00000000E+00
  0.00000000E+00  0.00000000E+00  0.00000000E+00
  0.00000000E+00  0.00000000E+00  0.00000000E+00
  0.00000000E+00  0.00000000E+00  0.00000000E+00
  0.00000000E+00  0.00000000E+00  0.00000000E+00
  0.00000000E+00  0.00000000E+00  0.00000000E+00
  0.00000000E+00  0.00000000E+00  0.00000000E+00
  0.00000000E+00  0.00000000E+00  0.00000000E+00
  0.00000000E+00  0.00000000E+00  0.00000000E+00
  0.00000000E+00  0.00000000E+00  0.00000000E+00
  0.00000000E+00  0.00000000E+00  0.00000000E+00
  0.00000000E+00  0.00000000E+00  0.00000000E+00
  0.00000000E+00  0.00000000E+00  0.00000000E+00
  0.00000000E+00  0.00000000E+00  0.00000000E+00
  0.00000000E+00  0.00000000E+00  0.00000000E+00
  0.00000000E+00  0.00000000E+00  0.00000000E+00
  0.00000000E+00  0.00000000E+00  0.00000000E+00
  0.00000000E+00  0.00000000E+00  0.00000000E+00
  0.00000000E+00  0.00000000E+00  0.00000000E+00
  0.00000000E+00  0.00000000E+00  0.00000000E+00
  0.00000000E+00  0.00000000E+00  0.00000000E+00
  0.00000000E+00  0.00000000E+00  0.00000000E+00
  0.00000000E+00  0.00000000E+00  0.00000000E+00
  0.00000000E+00  0.00000000E+00  0.00000000E+00
  0.00000000E+00  0.00000000E+00  0.00000000E+00
  0.00000000E+00  0.00000000E+00  0.00000000E+00
  0.00000000E+00  0.00000000E+00  0.00000000E+00
  0.00000000E+00  0.00000000E+00  0.00000000E+00
  0.00000000E+00  0.00000000E+00  0.00000000E+00
  0.00000000E+00  0.00000000E+00  0.00000000E+00
  0.00000000E+00  0.00000000E+00  0.00000000E+00
  0.00000000E+00  0.00000000E+00  0.00000000E+00
  0.00000000E+00  0.00000000E+00  0.00000000E+00
  0.00000000E+00  0.00000000E+00  0.00000000E+00
  0.00000000E+00  0.00000000E+00  0.00000000E+00
  0.00000000E+00  0.00000000E+00  0.00000000E+00
  0.00000000E+00  0.00000000E+00  0.00000000E+00
  0.00000000E+00  0.00000000E+00  0.00000000E+00
  0.00000000E+00  0.00000000E+00  0.00000000E+00
  0.00000000E+00  0.00000000E+00  0.00000000E+00
  0.00000000E+00  0.00000000E+00  0.00000000E+00
  0.00000000E+00  0.00000000E+00  0.00000000E+00
  0.00000000E+00  0.00000000E+00  0.00000000E+00
  0.00000000E+00  0.00000000E+00  0.00000000E+00
