Mg   O    H                             
   1.00000000000000     
     9.5557527542000003    0.0000000000000000    0.0000000000000000
    -4.7778763771000001    8.2755246374000002    0.0000000000000000
     0.0000000000000000    0.0000000000000000   32.6250953674000002
   Mg   O    H 
    45     6    12
Selective dynamics
Direct
  0.0000000000000000  0.0000000000000000  0.0000000000000000   F   F   F
  0.9969346482357013  0.9984788714994361  0.1584012209043646   T   T   T
  0.9979405446396684  0.0035676848726285  0.3311991929455576   T   T   T
  0.0000000098065698  0.3333333613114178  0.0000000000000000   F   F   F
  0.9983237980347782  0.3336638403920181  0.1574144572384044   T   T   T
  0.9869769097031927  0.3316729233052846  0.3112926210859542   T   T   T
  0.0000000196131396  0.6666667226228356  0.0000000000000000   F   F   F
  0.9967651934402872  0.6657922298624229  0.1579704671213703   T   T   T
  0.9982133772603597  0.6730108092917199  0.3149276097566072   T   T   T
  0.3333333416982782  0.0000000000000000  0.0000000000000000   F   F   F
  0.3305877846700447  0.9985932233475234  0.1575339072384636   T   T   T
  0.3246442284353660  0.9975361991515633  0.3104318761377309   T   T   T
  0.3333333515048480  0.3333333613114178  0.0000000000000000   F   F   F
  0.3306064304853037  0.3313735028840444  0.1569050108960279   T   T   T
  0.3160488733117668  0.3214890512704788  0.3111553629108280   T   T   T
  0.3333333597416868  0.6666667226228356  0.0000000000000000   F   F   F
  0.3303031348895178  0.6661554653777183  0.1581230649809376   T   T   T
  0.3135608664187133  0.6676489404829091  0.3299410720009975   T   T   T
  0.6666666832919077  0.0000000000000000  0.0000000000000000   F   F   F
  0.6645685267570381  0.9976813087812418  0.1577996806077977   T   T   T
  0.6634083965545911  0.0068734736415144  0.3140682006276971   T   T   T
  0.6666666806452426  0.3333333613114178  0.0000000000000000   F   F   F
  0.6646258797132008  0.3345417689702081  0.1587070863572185   T   T   T
  0.6575790853354061  0.3221398961916491  0.3267190084960898   T   T   T
  0.6666667030096960  0.6666667226228356  0.0000000000000000   F   F   F
  0.6666212084426919  0.6664556299403588  0.1589448073429308   T   T   T
  0.6628174726345921  0.6737919302465485  0.3272536678678904   T   T   T
  0.1111111284960415  0.2222222216206760  0.0798214519428555   F   F   F
  0.1037518027036933  0.2189409904582860  0.2354899390248094   T   T   T
  0.1111111350571008  0.5555556118124798  0.0798214519428555   F   F   F
  0.1106841352187684  0.5576665628831634  0.2368143463639009   T   T   T
  0.1111111554345570  0.8888889442433907  0.0798214519428555   F   F   F
  0.1042475843167054  0.8874715831566696  0.2353893655121999   T   T   T
  0.4444445023215593  0.2222222216206760  0.0798214519428555   F   F   F
  0.4426320186098685  0.2235995114410587  0.2358846523601462   T   T   T
  0.4444445016618417  0.5555556118124798  0.0798214519428555   F   F   F
  0.4408160568558396  0.5546310148710920  0.2347997982317548   T   T   T
  0.4444445131441270  0.8888889442433907  0.0798214519428555   F   F   F
  0.4406509308961310  0.8829773865726350  0.2365546008781138   T   T   T
  0.7777777941022634  0.2222222216206760  0.0798214519428555   F   F   F
  0.7708214756619646  0.2200820593718829  0.2348015139599012   T   T   T
  0.7777778058957736  0.5555556118124798  0.0798214519428555   F   F   F
  0.7673345121241502  0.5499442120983975  0.2415549721900112   T   T   T
  0.7777778387265144  0.8888889442433907  0.0798214519428555   F   F   F
  0.7749269563061382  0.8844503140335601  0.2407982073808830   T   T   T
  0.9953929863721827  0.0048287880230719  0.3959390454376317   T   T   T
  0.2672343706734253  0.9718990701120171  0.4155448021626589   T   T   T
  0.9095126083795347  0.2384603660216295  0.4153208183000827   T   T   T
  0.6266332515970662  0.3599777667429440  0.3890086457298391   T   T   T
  0.6256031112660496  0.6320171443385327  0.3879732698322180   T   T   T
  0.3639428119754536  0.6675650576860538  0.3921269242666621   T   T   T
  0.9753228441914040  0.0878428785879648  0.4086246279357274   T   T   T
  0.0890899860621410  0.0062614604504401  0.4094901822034213   T   T   T
  0.3673613596776450  0.0751333763409888  0.4115165109048801   T   T   T
  0.2447414822013572  0.9215512368694402  0.3879361375961766   T   T   T
  0.0064625838314880  0.3450769121135387  0.4126358945854859   T   T   T
  0.8601506924348189  0.2185423657468668  0.3875271713700745   T   T   T
  0.6259946415826456  0.4680949761311748  0.3927259175338985   T   T   T
  0.7047182318448948  0.3593295966834086  0.4082692490508003   T   T   T
  0.7174610508825059  0.7113770795631020  0.4040191283765033   T   T   T
  0.4273914637038991  0.5491849969468598  0.3217580985193390   T   T   T
  0.3689109135317305  0.7528902463508083  0.4096305869590695   T   T   T
  0.4651082071656396  0.6586686760248714  0.3963776801588482   T   T   T
 
  0.00000000E+00  0.00000000E+00  0.00000000E+00
  0.00000000E+00  0.00000000E+00  0.00000000E+00
  0.00000000E+00  0.00000000E+00  0.00000000E+00
  0.00000000E+00  0.00000000E+00  0.00000000E+00
  0.00000000E+00  0.00000000E+00  0.00000000E+00
  0.00000000E+00  0.00000000E+00  0.00000000E+00
  0.00000000E+00  0.00000000E+00  0.00000000E+00
  0.00000000E+00  0.00000000E+00  0.00000000E+00
  0.00000000E+00  0.00000000E+00  0.00000000E+00
  0.00000000E+00  0.00000000E+00  0.00000000E+00
  0.00000000E+00  0.00000000E+00  0.00000000E+00
  0.00000000E+00  0.00000000E+00  0.00000000E+00
  0.00000000E+00  0.00000000E+00  0.00000000E+00
  0.00000000E+00  0.00000000E+00  0.00000000E+00
  0.00000000E+00  0.00000000E+00  0.00000000E+00
  0.00000000E+00  0.00000000E+00  0.00000000E+00
  0.00000000E+00  0.00000000E+00  0.00000000E+00
  0.00000000E+00  0.00000000E+00  0.00000000E+00
  0.00000000E+00  0.00000000E+00  0.00000000E+00
  0.00000000E+00  0.00000000E+00  0.00000000E+00
  0.00000000E+00  0.00000000E+00  0.00000000E+00
  0.00000000E+00  0.00000000E+00  0.00000000E+00
  0.00000000E+00  0.00000000E+00  0.00000000E+00
  0.00000000E+00  0.00000000E+00  0.00000000E+00
  0.00000000E+00  0.00000000E+00  0.00000000E+00
  0.00000000E+00  0.00000000E+00  0.00000000E+00
  0.00000000E+00  0.00000000E+00  0.00000000E+00
  0.00000000E+00  0.00000000E+00  0.00000000E+00
  0.00000000E+00  0.00000000E+00  0.00000000E+00
  0.00000000E+00  0.00000000E+00  0.00000000E+00
  0.00000000E+00  0.00000000E+00  0.00000000E+00
  0.00000000E+00  0.00000000E+00  0.00000000E+00
  0.00000000E+00  0.00000000E+00  0.00000000E+00
  0.00000000E+00  0.00000000E+00  0.00000000E+00
  0.00000000E+00  0.00000000E+00  0.00000000E+00
  0.00000000E+00  0.00000000E+00  0.00000000E+00
  0.00000000E+00  0.00000000E+00  0.00000000E+00
  0.00000000E+00  0.00000000E+00  0.00000000E+00
  0.00000000E+00  0.00000000E+00  0.00000000E+00
  0.00000000E+00  0.00000000E+00  0.00000000E+00
  0.00000000E+00  0.00000000E+00  0.00000000E+00
  0.00000000E+00  0.00000000E+00  0.00000000E+00
  0.00000000E+00  0.00000000E+00  0.00000000E+00
  0.00000000E+00  0.00000000E+00  0.00000000E+00
  0.00000000E+00  0.00000000E+00  0.00000000E+00
  0.00000000E+00  0.00000000E+00  0.00000000E+00
  0.00000000E+00  0.00000000E+00  0.00000000E+00
  0.00000000E+00  0.00000000E+00  0.00000000E+00
  0.00000000E+00  0.00000000E+00  0.00000000E+00
  0.00000000E+00  0.00000000E+00  0.00000000E+00
  0.00000000E+00  0.00000000E+00  0.00000000E+00
  0.00000000E+00  0.00000000E+00  0.00000000E+00
  0.00000000E+00  0.00000000E+00  0.00000000E+00
  0.00000000E+00  0.00000000E+00  0.00000000E+00
  0.00000000E+00  0.00000000E+00  0.00000000E+00
  0.00000000E+00  0.00000000E+00  0.00000000E+00
  0.00000000E+00  0.00000000E+00  0.00000000E+00
  0.00000000E+00  0.00000000E+00  0.00000000E+00
  0.00000000E+00  0.00000000E+00  0.00000000E+00
  0.00000000E+00  0.00000000E+00  0.00000000E+00
  0.00000000E+00  0.00000000E+00  0.00000000E+00
  0.00000000E+00  0.00000000E+00  0.00000000E+00
  0.00000000E+00  0.00000000E+00  0.00000000E+00
