Mg   O    H                             
   1.00000000000000     
     9.5557527542000003    0.0000000000000000    0.0000000000000000
    -4.7778763771000001    8.2755246374000002    0.0000000000000000
     0.0000000000000000    0.0000000000000000   32.6250953674000002
   Mg   O    H 
    45     6    12
Selective dynamics
Direct
  0.0000000000000000  0.0000000000000000  0.0000000000000000   F   F   F
  0.9970798242566019  0.9982820526097314  0.1582401674291916   T   T   T
  0.9989087246668262  0.0031708420690180  0.3311699408252551   T   T   T
  0.0000000098065698  0.3333333613114178  0.0000000000000000   F   F   F
  0.9984587471484829  0.3330284378649324  0.1574606923193755   T   T   T
  0.9872052616749158  0.3309209134386322  0.3108616242653071   T   T   T
  0.0000000196131396  0.6666667226228356  0.0000000000000000   F   F   F
  0.9969784038930385  0.6651657544846898  0.1578317770759696   T   T   T
  0.9975695797873954  0.6729925226618363  0.3144541934449236   T   T   T
  0.3333333416982782  0.0000000000000000  0.0000000000000000   F   F   F
  0.3310668425627554  0.9982602436225818  0.1573602323935006   T   T   T
  0.3241332661303531  0.9980212385549692  0.3093823018541997   T   T   T
  0.3333333515048480  0.3333333613114178  0.0000000000000000   F   F   F
  0.3306627418911461  0.3309392574071310  0.1568574519092465   T   T   T
  0.3172308041467318  0.3229013533268343  0.3113159801132568   T   T   T
  0.3333333597416868  0.6666667226228356  0.0000000000000000   F   F   F
  0.3303899238207393  0.6658866131129528  0.1579919797779894   T   T   T
  0.3131412035816581  0.6684345705479373  0.3296879187690749   T   T   T
  0.6666666832919077  0.0000000000000000  0.0000000000000000   F   F   F
  0.6648556596572064  0.9973378797415720  0.1577529230958632   T   T   T
  0.6632719981037383  0.0040437569118339  0.3139883780011914   T   T   T
  0.6666666806452426  0.3333333613114178  0.0000000000000000   F   F   F
  0.6649846521911584  0.3340980568577905  0.1587407463448898   T   T   T
  0.6575057751545046  0.3195571661106413  0.3262482545616336   T   T   T
  0.6666667030096960  0.6666667226228356  0.0000000000000000   F   F   F
  0.6672347290589897  0.6662462296527423  0.1589279340153951   T   T   T
  0.6597608708413532  0.6723931949670146  0.3292125575051870   T   T   T
  0.1111111284960415  0.2222222216206760  0.0798214519428555   F   F   F
  0.1042531613379651  0.2178182358426568  0.2356137012508128   T   T   T
  0.1111111350571008  0.5555556118124798  0.0798214519428555   F   F   F
  0.1112416574428607  0.5570126553110413  0.2367208849065818   T   T   T
  0.1111111554345570  0.8888889442433907  0.0798214519428555   F   F   F
  0.1040761210620786  0.8862581647173826  0.2347958373067556   T   T   T
  0.4444445023215593  0.2222222216206760  0.0798214519428555   F   F   F
  0.4428672533865168  0.2235930402174802  0.2356800840300011   T   T   T
  0.4444445016618417  0.5555556118124798  0.0798214519428555   F   F   F
  0.4410317682484575  0.5540645309774774  0.2344134309248389   T   T   T
  0.4444445131441270  0.8888889442433907  0.0798214519428555   F   F   F
  0.4409759568353451  0.8819781431509028  0.2363911388865603   T   T   T
  0.7777777941022634  0.2222222216206760  0.0798214519428555   F   F   F
  0.7706441816401153  0.2187097450272475  0.2348048603619048   T   T   T
  0.7777778058957736  0.5555556118124798  0.0798214519428555   F   F   F
  0.7669768994798076  0.5488559311983039  0.2416863138955563   T   T   T
  0.7777778387265144  0.8888889442433907  0.0798214519428555   F   F   F
  0.7753627804045067  0.8829751299693953  0.2408928272991062   T   T   T
  0.9965286091464378  0.0083367979705145  0.3962848728153858   T   T   T
  0.2763767886058730  0.9625553741632800  0.4139527570966308   T   T   T
  0.9064199270702460  0.2400045148880636  0.4141251729227236   T   T   T
  0.6298802224565705  0.3540605915118960  0.3883415171563911   T   T   T
  0.6315633300038286  0.6236293826661381  0.3891255795558308   T   T   T
  0.3448935930629702  0.6791971214076753  0.3939151653144535   T   T   T
  0.9749486036933490  0.0910408199546708  0.4085810310986062   T   T   T
  0.0870784815900763  0.0086182937469559  0.4108485948156968   T   T   T
  0.3751230533594523  0.0681994450235237  0.4114222780483203   T   T   T
  0.2442643641402000  0.9301002045424838  0.3849465180541927   T   T   T
  0.0021944698048486  0.3475803440241663  0.4114892557752938   T   T   T
  0.8593086937520411  0.2178212408405784  0.3860022779351766   T   T   T
  0.6316458948740120  0.4650062553316801  0.3926004091821653   T   T   T
  0.7076870789202943  0.3501543644529264  0.4071015429517644   T   T   T
  0.7236529682616961  0.7017328909557321  0.4052743186596999   T   T   T
  0.4232334093724148  0.5460967184164289  0.3263240696030465   T   T   T
  0.3444436752241913  0.7692241499735317  0.4084202878192897   T   T   T
  0.4408026261948095  0.6715785624578814  0.4021898629322607   T   T   T
 
  0.00000000E+00  0.00000000E+00  0.00000000E+00
  0.00000000E+00  0.00000000E+00  0.00000000E+00
  0.00000000E+00  0.00000000E+00  0.00000000E+00
  0.00000000E+00  0.00000000E+00  0.00000000E+00
  0.00000000E+00  0.00000000E+00  0.00000000E+00
  0.00000000E+00  0.00000000E+00  0.00000000E+00
  0.00000000E+00  0.00000000E+00  0.00000000E+00
  0.00000000E+00  0.00000000E+00  0.00000000E+00
  0.00000000E+00  0.00000000E+00  0.00000000E+00
  0.00000000E+00  0.00000000E+00  0.00000000E+00
  0.00000000E+00  0.00000000E+00  0.00000000E+00
  0.00000000E+00  0.00000000E+00  0.00000000E+00
  0.00000000E+00  0.00000000E+00  0.00000000E+00
  0.00000000E+00  0.00000000E+00  0.00000000E+00
  0.00000000E+00  0.00000000E+00  0.00000000E+00
  0.00000000E+00  0.00000000E+00  0.00000000E+00
  0.00000000E+00  0.00000000E+00  0.00000000E+00
  0.00000000E+00  0.00000000E+00  0.00000000E+00
  0.00000000E+00  0.00000000E+00  0.00000000E+00
  0.00000000E+00  0.00000000E+00  0.00000000E+00
  0.00000000E+00  0.00000000E+00  0.00000000E+00
  0.00000000E+00  0.00000000E+00  0.00000000E+00
  0.00000000E+00  0.00000000E+00  0.00000000E+00
  0.00000000E+00  0.00000000E+00  0.00000000E+00
  0.00000000E+00  0.00000000E+00  0.00000000E+00
  0.00000000E+00  0.00000000E+00  0.00000000E+00
  0.00000000E+00  0.00000000E+00  0.00000000E+00
  0.00000000E+00  0.00000000E+00  0.00000000E+00
  0.00000000E+00  0.00000000E+00  0.00000000E+00
  0.00000000E+00  0.00000000E+00  0.00000000E+00
  0.00000000E+00  0.00000000E+00  0.00000000E+00
  0.00000000E+00  0.00000000E+00  0.00000000E+00
  0.00000000E+00  0.00000000E+00  0.00000000E+00
  0.00000000E+00  0.00000000E+00  0.00000000E+00
  0.00000000E+00  0.00000000E+00  0.00000000E+00
  0.00000000E+00  0.00000000E+00  0.00000000E+00
  0.00000000E+00  0.00000000E+00  0.00000000E+00
  0.00000000E+00  0.00000000E+00  0.00000000E+00
  0.00000000E+00  0.00000000E+00  0.00000000E+00
  0.00000000E+00  0.00000000E+00  0.00000000E+00
  0.00000000E+00  0.00000000E+00  0.00000000E+00
  0.00000000E+00  0.00000000E+00  0.00000000E+00
  0.00000000E+00  0.00000000E+00  0.00000000E+00
  0.00000000E+00  0.00000000E+00  0.00000000E+00
  0.00000000E+00  0.00000000E+00  0.00000000E+00
  0.00000000E+00  0.00000000E+00  0.00000000E+00
  0.00000000E+00  0.00000000E+00  0.00000000E+00
  0.00000000E+00  0.00000000E+00  0.00000000E+00
  0.00000000E+00  0.00000000E+00  0.00000000E+00
  0.00000000E+00  0.00000000E+00  0.00000000E+00
  0.00000000E+00  0.00000000E+00  0.00000000E+00
  0.00000000E+00  0.00000000E+00  0.00000000E+00
  0.00000000E+00  0.00000000E+00  0.00000000E+00
  0.00000000E+00  0.00000000E+00  0.00000000E+00
  0.00000000E+00  0.00000000E+00  0.00000000E+00
  0.00000000E+00  0.00000000E+00  0.00000000E+00
  0.00000000E+00  0.00000000E+00  0.00000000E+00
  0.00000000E+00  0.00000000E+00  0.00000000E+00
  0.00000000E+00  0.00000000E+00  0.00000000E+00
  0.00000000E+00  0.00000000E+00  0.00000000E+00
  0.00000000E+00  0.00000000E+00  0.00000000E+00
  0.00000000E+00  0.00000000E+00  0.00000000E+00
  0.00000000E+00  0.00000000E+00  0.00000000E+00
