Mg   O    H                             
   1.00000000000000     
     9.5557527542000003    0.0000000000000000    0.0000000000000000
    -4.7778763771000001    8.2755246374000002    0.0000000000000000
     0.0000000000000000    0.0000000000000000   32.6250953674000002
   Mg   O    H 
    45     6    12
Selective dynamics
Direct
  0.0000000000000000  0.0000000000000000  0.0000000000000000   F   F   F
  0.9970798242566045  0.9982820526097287  0.1582401674291894   T   T   T
  0.9989087246668230  0.0031708420690183  0.3311699408252575   T   T   T
  0.0000000098065698  0.3333333613114178  0.0000000000000000   F   F   F
  0.9984587471484809  0.3330284378649297  0.1574606923193749   T   T   T
  0.9872052616749140  0.3309209134386294  0.3108616242653103   T   T   T
  0.0000000196131396  0.6666667226228356  0.0000000000000000   F   F   F
  0.9969784038930356  0.6651657544846877  0.1578317770759703   T   T   T
  0.9975695797873947  0.6729925226618393  0.3144541934449221   T   T   T
  0.3333333416982782  0.0000000000000000  0.0000000000000000   F   F   F
  0.3310668425627582  0.9982602436225834  0.1573602323935008   T   T   T
  0.3241332661303521  0.9980212385549656  0.3093823018541991   T   T   T
  0.3333333515048480  0.3333333613114178  0.0000000000000000   F   F   F
  0.3306627418911485  0.3309392574071322  0.1568574519092494   T   T   T
  0.3172308041467332  0.3229013533268357  0.3113159801132596   T   T   T
  0.3333333597416868  0.6666667226228356  0.0000000000000000   F   F   F
  0.3303899238207365  0.6658866131129559  0.1579919797779865   T   T   T
  0.3131412035816575  0.6684345705479391  0.3296879187690767   T   T   T
  0.6666666832919077  0.0000000000000000  0.0000000000000000   F   F   F
  0.6648556596572054  0.9973378797415720  0.1577529230958635   T   T   T
  0.6632719981037373  0.0040437569118324  0.3139883780011909   T   T   T
  0.6666666806452426  0.3333333613114178  0.0000000000000000   F   F   F
  0.6649846521911592  0.3340980568577920  0.1587407463448883   T   T   T
  0.6575057751545036  0.3195571661106434  0.3262482545616350   T   T   T
  0.6666667030096960  0.6666667226228356  0.0000000000000000   F   F   F
  0.6672347290589877  0.6662462296527456  0.1589279340153958   T   T   T
  0.6597608708413549  0.6723931949670177  0.3292125575051881   T   T   T
  0.1111111284960415  0.2222222216206760  0.0798214519428555   F   F   F
  0.1042531613379617  0.2178182358426542  0.2356137012508105   T   T   T
  0.1111111350571008  0.5555556118124798  0.0798214519428555   F   F   F
  0.1112416574428575  0.5570126553110446  0.2367208849065818   T   T   T
  0.1111111554345570  0.8888889442433907  0.0798214519428555   F   F   F
  0.1040761210620809  0.8862581647173808  0.2347958373067543   T   T   T
  0.4444445023215593  0.2222222216206760  0.0798214519428555   F   F   F
  0.4428672533865137  0.2235930402174789  0.2356800840300036   T   T   T
  0.4444445016618417  0.5555556118124798  0.0798214519428555   F   F   F
  0.4410317682484582  0.5540645309774762  0.2344134309248356   T   T   T
  0.4444445131441270  0.8888889442433907  0.0798214519428555   F   F   F
  0.4409759568353457  0.8819781431509031  0.2363911388865632   T   T   T
  0.7777777941022634  0.2222222216206760  0.0798214519428555   F   F   F
  0.7706441816401138  0.2187097450272494  0.2348048603619056   T   T   T
  0.7777778058957736  0.5555556118124798  0.0798214519428555   F   F   F
  0.7669768994798043  0.5488559311983056  0.2416863138955588   T   T   T
  0.7777778387265144  0.8888889442433907  0.0798214519428555   F   F   F
  0.7753627804045091  0.8829751299693934  0.2408928272991049   T   T   T
  0.9965286091464409  0.0083367979705115  0.3962848728153885   T   T   T
  0.2763767886058736  0.9625553741632772  0.4139527570966310   T   T   T
  0.9064199270702445  0.2400045148880626  0.4141251729227219   T   T   T
  0.6298802224565672  0.3540605915118941  0.3883415171563910   T   T   T
  0.6315633300038264  0.6236293826661382  0.3891255795558308   T   T   T
  0.3448935930629701  0.6791971214076767  0.3939151653144525   T   T   T
  0.9749486036933498  0.0910408199546677  0.4085810310986036   T   T   T
  0.0870784815900771  0.0086182937469524  0.4108485948156976   T   T   T
  0.3751230533594493  0.0681994450235232  0.4114222780483206   T   T   T
  0.2442643641401999  0.9301002045424828  0.3849465180541961   T   T   T
  0.0021944698048516  0.3475803440241637  0.4114892557752968   T   T   T
  0.8593086937520394  0.2178212408405767  0.3860022779351796   T   T   T
  0.6316458948740123  0.4650062553316769  0.3926004091821682   T   T   T
  0.7076870789202968  0.3501543644529267  0.4071015429517676   T   T   T
  0.7236529682616941  0.7017328909557291  0.4052743186596978   T   T   T
  0.4232334093724169  0.5460967184164276  0.3263240696030447   T   T   T
  0.3444436752241912  0.7692241499735338  0.4084202878192879   T   T   T
  0.4408026261948102  0.6715785624578788  0.4021898629322596   T   T   T
 
  0.00000000E+00  0.00000000E+00  0.00000000E+00
  0.00000000E+00  0.00000000E+00  0.00000000E+00
  0.00000000E+00  0.00000000E+00  0.00000000E+00
  0.00000000E+00  0.00000000E+00  0.00000000E+00
  0.00000000E+00  0.00000000E+00  0.00000000E+00
  0.00000000E+00  0.00000000E+00  0.00000000E+00
  0.00000000E+00  0.00000000E+00  0.00000000E+00
  0.00000000E+00  0.00000000E+00  0.00000000E+00
  0.00000000E+00  0.00000000E+00  0.00000000E+00
  0.00000000E+00  0.00000000E+00  0.00000000E+00
  0.00000000E+00  0.00000000E+00  0.00000000E+00
  0.00000000E+00  0.00000000E+00  0.00000000E+00
  0.00000000E+00  0.00000000E+00  0.00000000E+00
  0.00000000E+00  0.00000000E+00  0.00000000E+00
  0.00000000E+00  0.00000000E+00  0.00000000E+00
  0.00000000E+00  0.00000000E+00  0.00000000E+00
  0.00000000E+00  0.00000000E+00  0.00000000E+00
  0.00000000E+00  0.00000000E+00  0.00000000E+00
  0.00000000E+00  0.00000000E+00  0.00000000E+00
  0.00000000E+00  0.00000000E+00  0.00000000E+00
  0.00000000E+00  0.00000000E+00  0.00000000E+00
  0.00000000E+00  0.00000000E+00  0.00000000E+00
  0.00000000E+00  0.00000000E+00  0.00000000E+00
  0.00000000E+00  0.00000000E+00  0.00000000E+00
  0.00000000E+00  0.00000000E+00  0.00000000E+00
  0.00000000E+00  0.00000000E+00  0.00000000E+00
  0.00000000E+00  0.00000000E+00  0.00000000E+00
  0.00000000E+00  0.00000000E+00  0.00000000E+00
  0.00000000E+00  0.00000000E+00  0.00000000E+00
  0.00000000E+00  0.00000000E+00  0.00000000E+00
  0.00000000E+00  0.00000000E+00  0.00000000E+00
  0.00000000E+00  0.00000000E+00  0.00000000E+00
  0.00000000E+00  0.00000000E+00  0.00000000E+00
  0.00000000E+00  0.00000000E+00  0.00000000E+00
  0.00000000E+00  0.00000000E+00  0.00000000E+00
  0.00000000E+00  0.00000000E+00  0.00000000E+00
  0.00000000E+00  0.00000000E+00  0.00000000E+00
  0.00000000E+00  0.00000000E+00  0.00000000E+00
  0.00000000E+00  0.00000000E+00  0.00000000E+00
  0.00000000E+00  0.00000000E+00  0.00000000E+00
  0.00000000E+00  0.00000000E+00  0.00000000E+00
  0.00000000E+00  0.00000000E+00  0.00000000E+00
  0.00000000E+00  0.00000000E+00  0.00000000E+00
  0.00000000E+00  0.00000000E+00  0.00000000E+00
  0.00000000E+00  0.00000000E+00  0.00000000E+00
  0.00000000E+00  0.00000000E+00  0.00000000E+00
  0.00000000E+00  0.00000000E+00  0.00000000E+00
  0.00000000E+00  0.00000000E+00  0.00000000E+00
  0.00000000E+00  0.00000000E+00  0.00000000E+00
  0.00000000E+00  0.00000000E+00  0.00000000E+00
  0.00000000E+00  0.00000000E+00  0.00000000E+00
  0.00000000E+00  0.00000000E+00  0.00000000E+00
  0.00000000E+00  0.00000000E+00  0.00000000E+00
  0.00000000E+00  0.00000000E+00  0.00000000E+00
  0.00000000E+00  0.00000000E+00  0.00000000E+00
  0.00000000E+00  0.00000000E+00  0.00000000E+00
  0.00000000E+00  0.00000000E+00  0.00000000E+00
  0.00000000E+00  0.00000000E+00  0.00000000E+00
  0.00000000E+00  0.00000000E+00  0.00000000E+00
  0.00000000E+00  0.00000000E+00  0.00000000E+00
  0.00000000E+00  0.00000000E+00  0.00000000E+00
  0.00000000E+00  0.00000000E+00  0.00000000E+00
  0.00000000E+00  0.00000000E+00  0.00000000E+00
