Mg   O    H                             
   1.00000000000000     
     9.5557527542000003    0.0000000000000000    0.0000000000000000
    -4.7778763771000001    8.2755246374000002    0.0000000000000000
     0.0000000000000000    0.0000000000000000   32.6250953674000002
   Mg   O    H 
    45     6    12
Selective dynamics
Direct
  0.0000000000000000  0.0000000000000000  0.0000000000000000   F   F   F
  0.9983024907952682  0.9992291017647901  0.1579063644775545   T   T   T
  0.9974115206709300  0.9997678540153316  0.3277427926160357   T   T   T
  0.0000000098065698  0.3333333613114178  0.0000000000000000   F   F   F
  0.9994229874543592  0.3324457375249992  0.1573765519716162   T   T   T
  0.9965792764797214  0.3316698075110267  0.3096837263677230   T   T   T
  0.0000000196131396  0.6666667226228356  0.0000000000000000   F   F   F
  0.9981806093565524  0.6642459386870598  0.1572220550240360   T   T   T
  0.9995528554936399  0.6684658136922579  0.3122630766011838   T   T   T
  0.3333333416982782  0.0000000000000000  0.0000000000000000   F   F   F
  0.3333417913921650  0.9993302522338112  0.1570484335343352   T   T   T
  0.3264876183442809  0.9975628364233629  0.3079616104359104   T   T   T
  0.3333333515048480  0.3333333613114178  0.0000000000000000   F   F   F
  0.3325999074431110  0.3329348688842799  0.1574859076882049   T   T   T
  0.3260876211112844  0.3327028555659766  0.3143616805981111   T   T   T
  0.3333333597416868  0.6666667226228356  0.0000000000000000   F   F   F
  0.3324268177212488  0.6654140442133922  0.1580796865311882   T   T   T
  0.3228526100745555  0.6644753643380241  0.3299136563660241   T   T   T
  0.6666666832919077  0.0000000000000000  0.0000000000000000   F   F   F
  0.6659772821751488  0.9982701963589093  0.1572974956942019   T   T   T
  0.6619890670237538  0.9942854042894282  0.3129672100487966   T   T   T
  0.6666666806452426  0.3333333613114178  0.0000000000000000   F   F   F
  0.6657715280586061  0.3327277264733866  0.1581265467199628   T   T   T
  0.6592945483743406  0.3194474630480855  0.3231254893962472   T   T   T
  0.6666667030096960  0.6666667226228356  0.0000000000000000   F   F   F
  0.6663066208077666  0.6656695368857442  0.1583490890895831   T   T   T
  0.6643611089408168  0.6623988961899698  0.3162477164025717   T   T   T
  0.1111111284960415  0.2222222216206760  0.0798214519428555   F   F   F
  0.1097011630202260  0.2171091319235643  0.2357152058964189   T   T   T
  0.1111111350571008  0.5555556118124798  0.0798214519428555   F   F   F
  0.1136194808283690  0.5574370529820456  0.2355958471443174   T   T   T
  0.1111111554345570  0.8888889442433907  0.0798214519428555   F   F   F
  0.1069759744030492  0.8861800621139153  0.2333793423568551   T   T   T
  0.4444445023215593  0.2222222216206760  0.0798214519428555   F   F   F
  0.4452501542524772  0.2246480812967135  0.2352717247448197   T   T   T
  0.4444445016618417  0.5555556118124798  0.0798214519428555   F   F   F
  0.4424424041930806  0.5562463292607376  0.2367730034079614   T   T   T
  0.4444445131441270  0.8888889442433907  0.0798214519428555   F   F   F
  0.4428299078107898  0.8843907967750013  0.2350462085667928   T   T   T
  0.7777777941022634  0.2222222216206760  0.0798214519428555   F   F   F
  0.7730167930520651  0.2191431571326916  0.2346722136654407   T   T   T
  0.7777778058957736  0.5555556118124798  0.0798214519428555   F   F   F
  0.7738043418779910  0.5497901498378681  0.2372323056956631   T   T   T
  0.7777778387265144  0.8888889442433907  0.0798214519428555   F   F   F
  0.7796094161069078  0.8871960161060670  0.2372951017008376   T   T   T
  0.9706107316533163  0.9865462810327301  0.3963071000816427   T   T   T
  0.2639326495788197  0.9662667644170568  0.4116228054906799   T   T   T
  0.8934346694206923  0.2422988015962204  0.4102912311646989   T   T   T
  0.6483750195299578  0.3265555491163425  0.3900598194116967   T   T   T
  0.6602367771118978  0.6299430266461741  0.3877014876277087   T   T   T
  0.2897891727935118  0.6882635185257442  0.3962878604299647   T   T   T
  0.9563201400762580  0.0749383271373603  0.4075342039776757   T   T   T
  0.0644274070633131  0.9908818233896923  0.4102653151039846   T   T   T
  0.3682291826653241  0.0668846443171134  0.4139106291758239   T   T   T
  0.2418854021838257  0.9590505116269341  0.3813513262061079   T   T   T
  0.9949064511413539  0.3460738861550681  0.4082626276081740   T   T   T
  0.8651489099204568  0.2116838427283909  0.3806602132059780   T   T   T
  0.6661662085575060  0.4340433722885919  0.3979127457006228   T   T   T
  0.7313844691243290  0.3103729873530199  0.4038844920053108   T   T   T
  0.7255700553490669  0.7394517044424305  0.3992287526962102   T   T   T
  0.5453910301858045  0.6021681432569466  0.3880022815692641   T   T   T
  0.2866948155160500  0.7862436520106399  0.4054784244871357   T   T   T
  0.3487227714569627  0.6656037050300441  0.4172907134695265   T   T   T
 
  0.00000000E+00  0.00000000E+00  0.00000000E+00
  0.00000000E+00  0.00000000E+00  0.00000000E+00
  0.00000000E+00  0.00000000E+00  0.00000000E+00
  0.00000000E+00  0.00000000E+00  0.00000000E+00
  0.00000000E+00  0.00000000E+00  0.00000000E+00
  0.00000000E+00  0.00000000E+00  0.00000000E+00
  0.00000000E+00  0.00000000E+00  0.00000000E+00
  0.00000000E+00  0.00000000E+00  0.00000000E+00
  0.00000000E+00  0.00000000E+00  0.00000000E+00
  0.00000000E+00  0.00000000E+00  0.00000000E+00
  0.00000000E+00  0.00000000E+00  0.00000000E+00
  0.00000000E+00  0.00000000E+00  0.00000000E+00
  0.00000000E+00  0.00000000E+00  0.00000000E+00
  0.00000000E+00  0.00000000E+00  0.00000000E+00
  0.00000000E+00  0.00000000E+00  0.00000000E+00
  0.00000000E+00  0.00000000E+00  0.00000000E+00
  0.00000000E+00  0.00000000E+00  0.00000000E+00
  0.00000000E+00  0.00000000E+00  0.00000000E+00
  0.00000000E+00  0.00000000E+00  0.00000000E+00
  0.00000000E+00  0.00000000E+00  0.00000000E+00
  0.00000000E+00  0.00000000E+00  0.00000000E+00
  0.00000000E+00  0.00000000E+00  0.00000000E+00
  0.00000000E+00  0.00000000E+00  0.00000000E+00
  0.00000000E+00  0.00000000E+00  0.00000000E+00
  0.00000000E+00  0.00000000E+00  0.00000000E+00
  0.00000000E+00  0.00000000E+00  0.00000000E+00
  0.00000000E+00  0.00000000E+00  0.00000000E+00
  0.00000000E+00  0.00000000E+00  0.00000000E+00
  0.00000000E+00  0.00000000E+00  0.00000000E+00
  0.00000000E+00  0.00000000E+00  0.00000000E+00
  0.00000000E+00  0.00000000E+00  0.00000000E+00
  0.00000000E+00  0.00000000E+00  0.00000000E+00
  0.00000000E+00  0.00000000E+00  0.00000000E+00
  0.00000000E+00  0.00000000E+00  0.00000000E+00
  0.00000000E+00  0.00000000E+00  0.00000000E+00
  0.00000000E+00  0.00000000E+00  0.00000000E+00
  0.00000000E+00  0.00000000E+00  0.00000000E+00
  0.00000000E+00  0.00000000E+00  0.00000000E+00
  0.00000000E+00  0.00000000E+00  0.00000000E+00
  0.00000000E+00  0.00000000E+00  0.00000000E+00
  0.00000000E+00  0.00000000E+00  0.00000000E+00
  0.00000000E+00  0.00000000E+00  0.00000000E+00
  0.00000000E+00  0.00000000E+00  0.00000000E+00
  0.00000000E+00  0.00000000E+00  0.00000000E+00
  0.00000000E+00  0.00000000E+00  0.00000000E+00
  0.00000000E+00  0.00000000E+00  0.00000000E+00
  0.00000000E+00  0.00000000E+00  0.00000000E+00
  0.00000000E+00  0.00000000E+00  0.00000000E+00
  0.00000000E+00  0.00000000E+00  0.00000000E+00
  0.00000000E+00  0.00000000E+00  0.00000000E+00
  0.00000000E+00  0.00000000E+00  0.00000000E+00
  0.00000000E+00  0.00000000E+00  0.00000000E+00
  0.00000000E+00  0.00000000E+00  0.00000000E+00
  0.00000000E+00  0.00000000E+00  0.00000000E+00
  0.00000000E+00  0.00000000E+00  0.00000000E+00
  0.00000000E+00  0.00000000E+00  0.00000000E+00
  0.00000000E+00  0.00000000E+00  0.00000000E+00
  0.00000000E+00  0.00000000E+00  0.00000000E+00
  0.00000000E+00  0.00000000E+00  0.00000000E+00
  0.00000000E+00  0.00000000E+00  0.00000000E+00
  0.00000000E+00  0.00000000E+00  0.00000000E+00
  0.00000000E+00  0.00000000E+00  0.00000000E+00
  0.00000000E+00  0.00000000E+00  0.00000000E+00
