Mg   O    H                             
   1.00000000000000     
     9.5557527542000003    0.0000000000000000    0.0000000000000000
    -4.7778763771000001    8.2755246374000002    0.0000000000000000
     0.0000000000000000    0.0000000000000000   32.6250953674000002
   Mg   O    H 
    45     6    12
Selective dynamics
Direct
  0.0000000000000000  0.0000000000000000  0.0000000000000000   F   F   F
  0.9983024907952650  0.9992291017647866  0.1579063644775547   T   T   T
  0.9974115206709273  0.9997678540153341  0.3277427926160350   T   T   T
  0.0000000098065698  0.3333333613114178  0.0000000000000000   F   F   F
  0.9994229874543579  0.3324457375250017  0.1573765519716175   T   T   T
  0.9965792764797216  0.3316698075110300  0.3096837263677238   T   T   T
  0.0000000196131396  0.6666667226228356  0.0000000000000000   F   F   F
  0.9981806093565515  0.6642459386870623  0.1572220550240379   T   T   T
  0.9995528554936370  0.6684658136922605  0.3122630766011842   T   T   T
  0.3333333416982782  0.0000000000000000  0.0000000000000000   F   F   F
  0.3333417913921647  0.9993302522338101  0.1570484335343332   T   T   T
  0.3264876183442827  0.9975628364233654  0.3079616104359125   T   T   T
  0.3333333515048480  0.3333333613114178  0.0000000000000000   F   F   F
  0.3325999074431112  0.3329348688842793  0.1574859076882079   T   T   T
  0.3260876211112846  0.3327028555659732  0.3143616805981131   T   T   T
  0.3333333597416868  0.6666667226228356  0.0000000000000000   F   F   F
  0.3324268177212521  0.6654140442133903  0.1580796865311876   T   T   T
  0.3228526100745582  0.6644753643380237  0.3299136563660263   T   T   T
  0.6666666832919077  0.0000000000000000  0.0000000000000000   F   F   F
  0.6659772821751505  0.9982701963589126  0.1572974956942045   T   T   T
  0.6619890670237574  0.9942854042894286  0.3129672100487946   T   T   T
  0.6666666806452426  0.3333333613114178  0.0000000000000000   F   F   F
  0.6657715280586085  0.3327277264733886  0.1581265467199607   T   T   T
  0.6592945483743430  0.3194474630480847  0.3231254893962500   T   T   T
  0.6666667030096960  0.6666667226228356  0.0000000000000000   F   F   F
  0.6663066208077638  0.6656695368857415  0.1583490890895861   T   T   T
  0.6643611089408148  0.6623988961899704  0.3162477164025748   T   T   T
  0.1111111284960415  0.2222222216206760  0.0798214519428555   F   F   F
  0.1097011630202268  0.2171091319235620  0.2357152058964216   T   T   T
  0.1111111350571008  0.5555556118124798  0.0798214519428555   F   F   F
  0.1136194808283679  0.5574370529820424  0.2355958471443207   T   T   T
  0.1111111554345570  0.8888889442433907  0.0798214519428555   F   F   F
  0.1069759744030526  0.8861800621139185  0.2333793423568552   T   T   T
  0.4444445023215593  0.2222222216206760  0.0798214519428555   F   F   F
  0.4452501542524792  0.2246480812967102  0.2352717247448217   T   T   T
  0.4444445016618417  0.5555556118124798  0.0798214519428555   F   F   F
  0.4424424041930800  0.5562463292607360  0.2367730034079600   T   T   T
  0.4444445131441270  0.8888889442433907  0.0798214519428555   F   F   F
  0.4428299078107881  0.8843907967750037  0.2350462085667929   T   T   T
  0.7777777941022634  0.2222222216206760  0.0798214519428555   F   F   F
  0.7730167930520634  0.2191431571326920  0.2346722136654438   T   T   T
  0.7777778058957736  0.5555556118124798  0.0798214519428555   F   F   F
  0.7738043418779936  0.5497901498378687  0.2372323056956599   T   T   T
  0.7777778387265144  0.8888889442433907  0.0798214519428555   F   F   F
  0.7796094161069068  0.8871960161060637  0.2372951017008346   T   T   T
  0.9706107316533160  0.9865462810327306  0.3963071000816435   T   T   T
  0.2639326495788170  0.9662667644170593  0.4116228054906828   T   T   T
  0.8934346694206956  0.2422988015962222  0.4102912311647004   T   T   T
  0.6483750195299599  0.3265555491163437  0.3900598194116970   T   T   T
  0.6602367771118970  0.6299430266461713  0.3877014876277090   T   T   T
  0.2897891727935112  0.6882635185257425  0.3962878604299671   T   T   T
  0.9563201400762588  0.0749383271373605  0.4075342039776780   T   T   T
  0.0644274070633098  0.9908818233896897  0.4102653151039873   T   T   T
  0.3682291826653227  0.0668846443171150  0.4139106291758246   T   T   T
  0.2418854021838238  0.9590505116269353  0.3813513262061075   T   T   T
  0.9949064511413571  0.3460738861550670  0.4082626276081744   T   T   T
  0.8651489099204573  0.2116838427283887  0.3806602132059807   T   T   T
  0.6661662085575065  0.4340433722885894  0.3979127457006243   T   T   T
  0.7313844691243265  0.3103729873530230  0.4038844920053095   T   T   T
  0.7255700553490656  0.7394517044424284  0.3992287526962103   T   T   T
  0.5453910301858078  0.6021681432569488  0.3880022815692636   T   T   T
  0.2866948155160522  0.7862436520106409  0.4054784244871390   T   T   T
  0.3487227714569593  0.6656037050300455  0.4172907134695238   T   T   T
 
  0.00000000E+00  0.00000000E+00  0.00000000E+00
  0.00000000E+00  0.00000000E+00  0.00000000E+00
  0.00000000E+00  0.00000000E+00  0.00000000E+00
  0.00000000E+00  0.00000000E+00  0.00000000E+00
  0.00000000E+00  0.00000000E+00  0.00000000E+00
  0.00000000E+00  0.00000000E+00  0.00000000E+00
  0.00000000E+00  0.00000000E+00  0.00000000E+00
  0.00000000E+00  0.00000000E+00  0.00000000E+00
  0.00000000E+00  0.00000000E+00  0.00000000E+00
  0.00000000E+00  0.00000000E+00  0.00000000E+00
  0.00000000E+00  0.00000000E+00  0.00000000E+00
  0.00000000E+00  0.00000000E+00  0.00000000E+00
  0.00000000E+00  0.00000000E+00  0.00000000E+00
  0.00000000E+00  0.00000000E+00  0.00000000E+00
  0.00000000E+00  0.00000000E+00  0.00000000E+00
  0.00000000E+00  0.00000000E+00  0.00000000E+00
  0.00000000E+00  0.00000000E+00  0.00000000E+00
  0.00000000E+00  0.00000000E+00  0.00000000E+00
  0.00000000E+00  0.00000000E+00  0.00000000E+00
  0.00000000E+00  0.00000000E+00  0.00000000E+00
  0.00000000E+00  0.00000000E+00  0.00000000E+00
  0.00000000E+00  0.00000000E+00  0.00000000E+00
  0.00000000E+00  0.00000000E+00  0.00000000E+00
  0.00000000E+00  0.00000000E+00  0.00000000E+00
  0.00000000E+00  0.00000000E+00  0.00000000E+00
  0.00000000E+00  0.00000000E+00  0.00000000E+00
  0.00000000E+00  0.00000000E+00  0.00000000E+00
  0.00000000E+00  0.00000000E+00  0.00000000E+00
  0.00000000E+00  0.00000000E+00  0.00000000E+00
  0.00000000E+00  0.00000000E+00  0.00000000E+00
  0.00000000E+00  0.00000000E+00  0.00000000E+00
  0.00000000E+00  0.00000000E+00  0.00000000E+00
  0.00000000E+00  0.00000000E+00  0.00000000E+00
  0.00000000E+00  0.00000000E+00  0.00000000E+00
  0.00000000E+00  0.00000000E+00  0.00000000E+00
  0.00000000E+00  0.00000000E+00  0.00000000E+00
  0.00000000E+00  0.00000000E+00  0.00000000E+00
  0.00000000E+00  0.00000000E+00  0.00000000E+00
  0.00000000E+00  0.00000000E+00  0.00000000E+00
  0.00000000E+00  0.00000000E+00  0.00000000E+00
  0.00000000E+00  0.00000000E+00  0.00000000E+00
  0.00000000E+00  0.00000000E+00  0.00000000E+00
  0.00000000E+00  0.00000000E+00  0.00000000E+00
  0.00000000E+00  0.00000000E+00  0.00000000E+00
  0.00000000E+00  0.00000000E+00  0.00000000E+00
  0.00000000E+00  0.00000000E+00  0.00000000E+00
  0.00000000E+00  0.00000000E+00  0.00000000E+00
  0.00000000E+00  0.00000000E+00  0.00000000E+00
  0.00000000E+00  0.00000000E+00  0.00000000E+00
  0.00000000E+00  0.00000000E+00  0.00000000E+00
  0.00000000E+00  0.00000000E+00  0.00000000E+00
  0.00000000E+00  0.00000000E+00  0.00000000E+00
  0.00000000E+00  0.00000000E+00  0.00000000E+00
  0.00000000E+00  0.00000000E+00  0.00000000E+00
  0.00000000E+00  0.00000000E+00  0.00000000E+00
  0.00000000E+00  0.00000000E+00  0.00000000E+00
  0.00000000E+00  0.00000000E+00  0.00000000E+00
  0.00000000E+00  0.00000000E+00  0.00000000E+00
  0.00000000E+00  0.00000000E+00  0.00000000E+00
  0.00000000E+00  0.00000000E+00  0.00000000E+00
  0.00000000E+00  0.00000000E+00  0.00000000E+00
  0.00000000E+00  0.00000000E+00  0.00000000E+00
  0.00000000E+00  0.00000000E+00  0.00000000E+00
