Mg   O    H                             
   1.00000000000000     
     9.5557527542000003    0.0000000000000000    0.0000000000000000
    -4.7778763771000001    8.2755246374000002    0.0000000000000000
     0.0000000000000000    0.0000000000000000   32.6250953674000002
   Mg   O    H 
    45     6    12
Selective dynamics
Direct
  0.0000000000000000  0.0000000000000000  0.0000000000000000   F   F   F
  0.0004342329854836  0.0005837101376045  0.1582519892375913   T   T   T
  0.9981749866644520  0.9996854687197327  0.3310494318894328   T   T   T
  0.0000000098065698  0.3333333613114178  0.0000000000000000   F   F   F
  0.0009140302048536  0.3340902564407315  0.1574644949819302   T   T   T
  0.9995093605966687  0.3342804248697675  0.3107060906221335   T   T   T
  0.0000000196131396  0.6666667226228356  0.0000000000000000   F   F   F
  0.0002613163477392  0.6668070830284378  0.1574324231743276   T   T   T
  0.0014950158656006  0.6696362293341380  0.3142838287061522   T   T   T
  0.3333333416982782  0.0000000000000000  0.0000000000000000   F   F   F
  0.3342790936536773  0.0007365959214525  0.1574763192480901   T   T   T
  0.3332345400947361  0.0010298971567266  0.3110305024435789   T   T   T
  0.3333333515048480  0.3333333613114178  0.0000000000000000   F   F   F
  0.3336536127963114  0.3335180147385870  0.1574176862116303   T   T   T
  0.3351368286111338  0.3359741098983378  0.3141819892305762   T   T   T
  0.3333333597416868  0.6666667226228356  0.0000000000000000   F   F   F
  0.3337951646885671  0.6672552606749491  0.1582554783852430   T   T   T
  0.3305790421212436  0.6651774245465205  0.3308944091172989   T   T   T
  0.6666666832919077  0.0000000000000000  0.0000000000000000   F   F   F
  0.6669552293723982  0.0001171899510197  0.1574279313950910   T   T   T
  0.6680234098677218  0.0024426288004022  0.3144723289847136   T   T   T
  0.6666666806452426  0.3333333613114178  0.0000000000000000   F   F   F
  0.6671447572511795  0.3339735049403032  0.1582519411067835   T   T   T
  0.6648003134519413  0.3324679580102980  0.3309481164175025   T   T   T
  0.6666667030096960  0.6666667226228356  0.0000000000000000   F   F   F
  0.6676373109201066  0.6674284737121852  0.1574954365236607   T   T   T
  0.6665071181322659  0.6680405245687879  0.3111022164437216   T   T   T
  0.1111111284960415  0.2222222216206760  0.0798214519428555   F   F   F
  0.1118348419185224  0.2198822560726796  0.2361311632884906   T   T   T
  0.1111111350571008  0.5555556118124798  0.0798214519428555   F   F   F
  0.1149657617393487  0.5594734110750323  0.2361339645266582   T   T   T
  0.1111111554345570  0.8888889442433907  0.0798214519428555   F   F   F
  0.1096239411925737  0.8894086989524368  0.2354420126968861   T   T   T
  0.4444445023215593  0.2222222216206760  0.0798214519428555   F   F   F
  0.4482647944935465  0.2258990464403610  0.2361375945273423   T   T   T
  0.4444445016618417  0.5555556118124798  0.0798214519428555   F   F   F
  0.4429762101213868  0.5560758560434138  0.2354510276077875   T   T   T
  0.4444445131441270  0.8888889442433907  0.0798214519428555   F   F   F
  0.4450870681537893  0.8864750398437593  0.2362165475572837   T   T   T
  0.7777777941022634  0.2222222216206760  0.0798214519428555   F   F   F
  0.7759951163952650  0.2224580206817350  0.2354046766140456   T   T   T
  0.7777778058957736  0.5555556118124798  0.0798214519428555   F   F   F
  0.7782840203354624  0.5531070114583301  0.2362696427257021   T   T   T
  0.7777778387265144  0.8888889442433907  0.0798214519428555   F   F   F
  0.7817128844159882  0.8927856015464926  0.2362320582485822   T   T   T
  0.9934011001106882  0.9958622513860433  0.3973825505495938   T   T   T
  0.2494585742762823  0.9162966054342760  0.4145611390432578   T   T   T
  0.9231028426917831  0.2582219952215965  0.4144793974029000   T   T   T
  0.6588556270521835  0.3262727015107316  0.3973157070197360   T   T   T
  0.5801687218065297  0.5819647867865925  0.4144648287993249   T   T   T
  0.3192648625504475  0.6541763671825080  0.3974740883092238   T   T   T
  0.9834979534618995  0.0827844838156437  0.4110203127058156   T   T   T
  0.0782869893281060  0.9832480487933211  0.4112391315949964   T   T   T
  0.3529917991182714  0.0181191518532486  0.4138408849339683   T   T   T
  0.2227108797605410  0.8910999085955993  0.3848227761544578   T   T   T
  0.0256790024471769  0.3610224628146028  0.4135173402272301   T   T   T
  0.8958152260011261  0.2318011022338240  0.3848285354468999   T   T   T
  0.6454819736147570  0.4111307866613885  0.4109660995558357   T   T   T
  0.7461190647733247  0.3174963024354795  0.4111130669013363   T   T   T
  0.6822996619472121  0.6852064765680623  0.4138733912989991   T   T   T
  0.5540926153564811  0.5568793693997307  0.3846880213271788   T   T   T
  0.3085530850791116  0.7406968844714328  0.4111032554140479   T   T   T
  0.4053124348154782  0.6431840543964640  0.4112527598607016   T   T   T
 
  0.00000000E+00  0.00000000E+00  0.00000000E+00
  0.00000000E+00  0.00000000E+00  0.00000000E+00
  0.00000000E+00  0.00000000E+00  0.00000000E+00
  0.00000000E+00  0.00000000E+00  0.00000000E+00
  0.00000000E+00  0.00000000E+00  0.00000000E+00
  0.00000000E+00  0.00000000E+00  0.00000000E+00
  0.00000000E+00  0.00000000E+00  0.00000000E+00
  0.00000000E+00  0.00000000E+00  0.00000000E+00
  0.00000000E+00  0.00000000E+00  0.00000000E+00
  0.00000000E+00  0.00000000E+00  0.00000000E+00
  0.00000000E+00  0.00000000E+00  0.00000000E+00
  0.00000000E+00  0.00000000E+00  0.00000000E+00
  0.00000000E+00  0.00000000E+00  0.00000000E+00
  0.00000000E+00  0.00000000E+00  0.00000000E+00
  0.00000000E+00  0.00000000E+00  0.00000000E+00
  0.00000000E+00  0.00000000E+00  0.00000000E+00
  0.00000000E+00  0.00000000E+00  0.00000000E+00
  0.00000000E+00  0.00000000E+00  0.00000000E+00
  0.00000000E+00  0.00000000E+00  0.00000000E+00
  0.00000000E+00  0.00000000E+00  0.00000000E+00
  0.00000000E+00  0.00000000E+00  0.00000000E+00
  0.00000000E+00  0.00000000E+00  0.00000000E+00
  0.00000000E+00  0.00000000E+00  0.00000000E+00
  0.00000000E+00  0.00000000E+00  0.00000000E+00
  0.00000000E+00  0.00000000E+00  0.00000000E+00
  0.00000000E+00  0.00000000E+00  0.00000000E+00
  0.00000000E+00  0.00000000E+00  0.00000000E+00
  0.00000000E+00  0.00000000E+00  0.00000000E+00
  0.00000000E+00  0.00000000E+00  0.00000000E+00
  0.00000000E+00  0.00000000E+00  0.00000000E+00
  0.00000000E+00  0.00000000E+00  0.00000000E+00
  0.00000000E+00  0.00000000E+00  0.00000000E+00
  0.00000000E+00  0.00000000E+00  0.00000000E+00
  0.00000000E+00  0.00000000E+00  0.00000000E+00
  0.00000000E+00  0.00000000E+00  0.00000000E+00
  0.00000000E+00  0.00000000E+00  0.00000000E+00
  0.00000000E+00  0.00000000E+00  0.00000000E+00
  0.00000000E+00  0.00000000E+00  0.00000000E+00
  0.00000000E+00  0.00000000E+00  0.00000000E+00
  0.00000000E+00  0.00000000E+00  0.00000000E+00
  0.00000000E+00  0.00000000E+00  0.00000000E+00
  0.00000000E+00  0.00000000E+00  0.00000000E+00
  0.00000000E+00  0.00000000E+00  0.00000000E+00
  0.00000000E+00  0.00000000E+00  0.00000000E+00
  0.00000000E+00  0.00000000E+00  0.00000000E+00
  0.00000000E+00  0.00000000E+00  0.00000000E+00
  0.00000000E+00  0.00000000E+00  0.00000000E+00
  0.00000000E+00  0.00000000E+00  0.00000000E+00
  0.00000000E+00  0.00000000E+00  0.00000000E+00
  0.00000000E+00  0.00000000E+00  0.00000000E+00
  0.00000000E+00  0.00000000E+00  0.00000000E+00
  0.00000000E+00  0.00000000E+00  0.00000000E+00
  0.00000000E+00  0.00000000E+00  0.00000000E+00
  0.00000000E+00  0.00000000E+00  0.00000000E+00
  0.00000000E+00  0.00000000E+00  0.00000000E+00
  0.00000000E+00  0.00000000E+00  0.00000000E+00
  0.00000000E+00  0.00000000E+00  0.00000000E+00
  0.00000000E+00  0.00000000E+00  0.00000000E+00
  0.00000000E+00  0.00000000E+00  0.00000000E+00
  0.00000000E+00  0.00000000E+00  0.00000000E+00
  0.00000000E+00  0.00000000E+00  0.00000000E+00
  0.00000000E+00  0.00000000E+00  0.00000000E+00
  0.00000000E+00  0.00000000E+00  0.00000000E+00
