Mg   O    H                             
   1.00000000000000     
     9.5557527542000003    0.0000000000000000    0.0000000000000000
    -4.7778763771000001    8.2755246374000002    0.0000000000000000
     0.0000000000000000    0.0000000000000000   32.6250953674000002
   Mg   O    H 
    45     6    12
Selective dynamics
Direct
  0.0000000000000000  0.0000000000000000  0.0000000000000000   F   F   F
  0.0004342329854831  0.0005837101376032  0.1582519892375887   T   T   T
  0.9981749866644554  0.9996854687197341  0.3310494318894301   T   T   T
  0.0000000098065698  0.3333333613114178  0.0000000000000000   F   F   F
  0.0009140302048548  0.3340902564407344  0.1574644949819316   T   T   T
  0.9995093605966685  0.3342804248697659  0.3107060906221345   T   T   T
  0.0000000196131396  0.6666667226228356  0.0000000000000000   F   F   F
  0.0002613163477391  0.6668070830284364  0.1574324231743301   T   T   T
  0.0014950158656013  0.6696362293341384  0.3142838287061518   T   T   T
  0.3333333416982782  0.0000000000000000  0.0000000000000000   F   F   F
  0.3342790936536797  0.0007365959214507  0.1574763192480867   T   T   T
  0.3332345400947361  0.0010298971567274  0.3110305024435757   T   T   T
  0.3333333515048480  0.3333333613114178  0.0000000000000000   F   F   F
  0.3336536127963087  0.3335180147385900  0.1574176862116280   T   T   T
  0.3351368286111351  0.3359741098983406  0.3141819892305761   T   T   T
  0.3333333597416868  0.6666667226228356  0.0000000000000000   F   F   F
  0.3337951646885687  0.6672552606749456  0.1582554783852438   T   T   T
  0.3305790421212427  0.6651774245465237  0.3308944091173006   T   T   T
  0.6666666832919077  0.0000000000000000  0.0000000000000000   F   F   F
  0.6669552293723969  0.0001171899510202  0.1574279313950944   T   T   T
  0.6680234098677185  0.0024426288004041  0.3144723289847151   T   T   T
  0.6666666806452426  0.3333333613114178  0.0000000000000000   F   F   F
  0.6671447572511804  0.3339735049403007  0.1582519411067870   T   T   T
  0.6648003134519438  0.3324679580102978  0.3309481164175037   T   T   T
  0.6666667030096960  0.6666667226228356  0.0000000000000000   F   F   F
  0.6676373109201046  0.6674284737121856  0.1574954365236606   T   T   T
  0.6665071181322674  0.6680405245687892  0.3111022164437222   T   T   T
  0.1111111284960415  0.2222222216206760  0.0798214519428555   F   F   F
  0.1118348419185211  0.2198822560726822  0.2361311632884896   T   T   T
  0.1111111350571008  0.5555556118124798  0.0798214519428555   F   F   F
  0.1149657617393452  0.5594734110750349  0.2361339645266553   T   T   T
  0.1111111554345570  0.8888889442433907  0.0798214519428555   F   F   F
  0.1096239411925744  0.8894086989524368  0.2354420126968831   T   T   T
  0.4444445023215593  0.2222222216206760  0.0798214519428555   F   F   F
  0.4482647944935467  0.2258990464403601  0.2361375945273406   T   T   T
  0.4444445016618417  0.5555556118124798  0.0798214519428555   F   F   F
  0.4429762101213849  0.5560758560434110  0.2354510276077904   T   T   T
  0.4444445131441270  0.8888889442433907  0.0798214519428555   F   F   F
  0.4450870681537918  0.8864750398437578  0.2362165475572853   T   T   T
  0.7777777941022634  0.2222222216206760  0.0798214519428555   F   F   F
  0.7759951163952669  0.2224580206817371  0.2354046766140446   T   T   T
  0.7777778058957736  0.5555556118124798  0.0798214519428555   F   F   F
  0.7782840203354645  0.5531070114583316  0.2362696427257032   T   T   T
  0.7777778387265144  0.8888889442433907  0.0798214519428555   F   F   F
  0.7817128844159882  0.8927856015464952  0.2362320582485800   T   T   T
  0.9934011001106849  0.9958622513860425  0.3973825505495927   T   T   T
  0.2494585742762822  0.9162966054342726  0.4145611390432588   T   T   T
  0.9231028426917851  0.2582219952215947  0.4144793974028965   T   T   T
  0.6588556270521839  0.3262727015107325  0.3973157070197346   T   T   T
  0.5801687218065310  0.5819647867865928  0.4144648287993231   T   T   T
  0.3192648625504481  0.6541763671825098  0.3974740883092208   T   T   T
  0.9834979534618972  0.0827844838156431  0.4110203127058163   T   T   T
  0.0782869893281095  0.9832480487933222  0.4112391315949999   T   T   T
  0.3529917991182728  0.0181191518532463  0.4138408849339660   T   T   T
  0.2227108797605395  0.8910999085955965  0.3848227761544603   T   T   T
  0.0256790024471749  0.3610224628146023  0.4135173402272316   T   T   T
  0.8958152260011232  0.2318011022338246  0.3848285354468967   T   T   T
  0.6454819736147593  0.4111307866613900  0.4109660995558378   T   T   T
  0.7461190647733256  0.3174963024354829  0.4111130669013389   T   T   T
  0.6822996619472125  0.6852064765680590  0.4138733912990005   T   T   T
  0.5540926153564815  0.5568793693997276  0.3846880213271768   T   T   T
  0.3085530850791123  0.7406968844714306  0.4111032554140495   T   T   T
  0.4053124348154770  0.6431840543964660  0.4112527598607009   T   T   T
 
  0.00000000E+00  0.00000000E+00  0.00000000E+00
  0.00000000E+00  0.00000000E+00  0.00000000E+00
  0.00000000E+00  0.00000000E+00  0.00000000E+00
  0.00000000E+00  0.00000000E+00  0.00000000E+00
  0.00000000E+00  0.00000000E+00  0.00000000E+00
  0.00000000E+00  0.00000000E+00  0.00000000E+00
  0.00000000E+00  0.00000000E+00  0.00000000E+00
  0.00000000E+00  0.00000000E+00  0.00000000E+00
  0.00000000E+00  0.00000000E+00  0.00000000E+00
  0.00000000E+00  0.00000000E+00  0.00000000E+00
  0.00000000E+00  0.00000000E+00  0.00000000E+00
  0.00000000E+00  0.00000000E+00  0.00000000E+00
  0.00000000E+00  0.00000000E+00  0.00000000E+00
  0.00000000E+00  0.00000000E+00  0.00000000E+00
  0.00000000E+00  0.00000000E+00  0.00000000E+00
  0.00000000E+00  0.00000000E+00  0.00000000E+00
  0.00000000E+00  0.00000000E+00  0.00000000E+00
  0.00000000E+00  0.00000000E+00  0.00000000E+00
  0.00000000E+00  0.00000000E+00  0.00000000E+00
  0.00000000E+00  0.00000000E+00  0.00000000E+00
  0.00000000E+00  0.00000000E+00  0.00000000E+00
  0.00000000E+00  0.00000000E+00  0.00000000E+00
  0.00000000E+00  0.00000000E+00  0.00000000E+00
  0.00000000E+00  0.00000000E+00  0.00000000E+00
  0.00000000E+00  0.00000000E+00  0.00000000E+00
  0.00000000E+00  0.00000000E+00  0.00000000E+00
  0.00000000E+00  0.00000000E+00  0.00000000E+00
  0.00000000E+00  0.00000000E+00  0.00000000E+00
  0.00000000E+00  0.00000000E+00  0.00000000E+00
  0.00000000E+00  0.00000000E+00  0.00000000E+00
  0.00000000E+00  0.00000000E+00  0.00000000E+00
  0.00000000E+00  0.00000000E+00  0.00000000E+00
  0.00000000E+00  0.00000000E+00  0.00000000E+00
  0.00000000E+00  0.00000000E+00  0.00000000E+00
  0.00000000E+00  0.00000000E+00  0.00000000E+00
  0.00000000E+00  0.00000000E+00  0.00000000E+00
  0.00000000E+00  0.00000000E+00  0.00000000E+00
  0.00000000E+00  0.00000000E+00  0.00000000E+00
  0.00000000E+00  0.00000000E+00  0.00000000E+00
  0.00000000E+00  0.00000000E+00  0.00000000E+00
  0.00000000E+00  0.00000000E+00  0.00000000E+00
  0.00000000E+00  0.00000000E+00  0.00000000E+00
  0.00000000E+00  0.00000000E+00  0.00000000E+00
  0.00000000E+00  0.00000000E+00  0.00000000E+00
  0.00000000E+00  0.00000000E+00  0.00000000E+00
  0.00000000E+00  0.00000000E+00  0.00000000E+00
  0.00000000E+00  0.00000000E+00  0.00000000E+00
  0.00000000E+00  0.00000000E+00  0.00000000E+00
  0.00000000E+00  0.00000000E+00  0.00000000E+00
  0.00000000E+00  0.00000000E+00  0.00000000E+00
  0.00000000E+00  0.00000000E+00  0.00000000E+00
  0.00000000E+00  0.00000000E+00  0.00000000E+00
  0.00000000E+00  0.00000000E+00  0.00000000E+00
  0.00000000E+00  0.00000000E+00  0.00000000E+00
  0.00000000E+00  0.00000000E+00  0.00000000E+00
  0.00000000E+00  0.00000000E+00  0.00000000E+00
  0.00000000E+00  0.00000000E+00  0.00000000E+00
  0.00000000E+00  0.00000000E+00  0.00000000E+00
  0.00000000E+00  0.00000000E+00  0.00000000E+00
  0.00000000E+00  0.00000000E+00  0.00000000E+00
  0.00000000E+00  0.00000000E+00  0.00000000E+00
  0.00000000E+00  0.00000000E+00  0.00000000E+00
  0.00000000E+00  0.00000000E+00  0.00000000E+00
