Mg   O    H                             
   1.00000000000000     
     9.5557527542000003    0.0000000000000000    0.0000000000000000
    -4.7778763771000001    8.2755246374000002    0.0000000000000000
     0.0000000000000000    0.0000000000000000   32.6250953674000002
   Mg   O    H 
    45     6    12
Selective dynamics
Direct
  0.0000000000000000  0.0000000000000000  0.0000000000000000   F   F   F
  0.9995024571268445  0.9998491636304578  0.1579313517021177   T   T   T
  0.0007351756712950  0.0020894968438654  0.3296126810331756   T   T   T
  0.0000000098065698  0.3333333613114178  0.0000000000000000   F   F   F
  0.0002489049704337  0.3328203205973210  0.1573740849094492   T   T   T
  0.9963088137858591  0.3320707969450538  0.3098049404232910   T   T   T
  0.0000000196131396  0.6666667226228356  0.0000000000000000   F   F   F
  0.9989831307614807  0.6646068743016826  0.1573124346230799   T   T   T
  0.0025902301558673  0.6697343249621213  0.3130064331010587   T   T   T
  0.3333333416982782  0.0000000000000000  0.0000000000000000   F   F   F
  0.3340316308681679  0.9998711851892281  0.1571045986707134   T   T   T
  0.3275175537133919  0.9972817322272931  0.3079791987692317   T   T   T
  0.3333333515048480  0.3333333613114178  0.0000000000000000   F   F   F
  0.3335436090370862  0.3334612832343069  0.1576268594329093   T   T   T
  0.3244957425908055  0.3329157554898927  0.3133000245193429   T   T   T
  0.3333333597416868  0.6666667226228356  0.0000000000000000   F   F   F
  0.3333594825051378  0.6659867619610012  0.1582110317607714   T   T   T
  0.3224851049627233  0.6636356885830352  0.3301669299463725   T   T   T
  0.6666666832919077  0.0000000000000000  0.0000000000000000   F   F   F
  0.6664457465537410  0.9984443160006933  0.1572085038672597   T   T   T
  0.6648087816510184  0.9950771550358084  0.3129062620197516   T   T   T
  0.6666666806452426  0.3333333613114178  0.0000000000000000   F   F   F
  0.6663032973201979  0.3332047945670880  0.1582430800964687   T   T   T
  0.6611085975530671  0.3180081389504537  0.3221271158667847   T   T   T
  0.6666667030096960  0.6666667226228356  0.0000000000000000   F   F   F
  0.6673531720748329  0.6658911011834832  0.1584339473014040   T   T   T
  0.6748943470848801  0.6696811689396611  0.3151258581350973   T   T   T
  0.1111111284960415  0.2222222216206760  0.0798214519428555   F   F   F
  0.1103393065925644  0.2176761452198690  0.2358006739548983   T   T   T
  0.1111111350571008  0.5555556118124798  0.0798214519428555   F   F   F
  0.1154891668226412  0.5580415447778009  0.2357855922231948   T   T   T
  0.1111111554345570  0.8888889442433907  0.0798214519428555   F   F   F
  0.1079874435961585  0.8863757190996822  0.2335236014150368   T   T   T
  0.4444445023215593  0.2222222216206760  0.0798214519428555   F   F   F
  0.4464542146747945  0.2253714453185651  0.2355186442112114   T   T   T
  0.4444445016618417  0.5555556118124798  0.0798214519428555   F   F   F
  0.4453017262065870  0.5579117223485639  0.2369048832136755   T   T   T
  0.4444445131441270  0.8888889442433907  0.0798214519428555   F   F   F
  0.4442398546890800  0.8851221381945180  0.2351344584330306   T   T   T
  0.7777777941022634  0.2222222216206760  0.0798214519428555   F   F   F
  0.7739272481976727  0.2191130984568375  0.2344612993866875   T   T   T
  0.7777778058957736  0.5555556118124798  0.0798214519428555   F   F   F
  0.7757478846356420  0.5499334324220229  0.2375891071757152   T   T   T
  0.7777778387265144  0.8888889442433907  0.0798214519428555   F   F   F
  0.7811892958522790  0.8884567646431236  0.2369351357781682   T   T   T
  0.9914153432983142  0.0081599891656410  0.3961963595711069   T   T   T
  0.2769229817771190  0.9717448124801606  0.4117499819341788   T   T   T
  0.8950714338563159  0.2501786431919655  0.4111572720310406   T   T   T
  0.6384334981107003  0.3215415083022322  0.3888201430932128   T   T   T
  0.6181768421608567  0.5993271790323860  0.3825132361757895   T   T   T
  0.2997989393990039  0.6928602221994353  0.3966537304023134   T   T   T
  0.9709404623729725  0.0914179682528982  0.4080940800010566   T   T   T
  0.0820764335954323  0.0101598692662890  0.4110778903426962   T   T   T
  0.3816491005023508  0.0727033459995639  0.4117348956683244   T   T   T
  0.2463204459141153  0.9575371577838823  0.3819937348196660   T   T   T
  0.9945268106197034  0.3551359165743264  0.4081438932122978   T   T   T
  0.8634493210979812  0.2163509116388553  0.3818982957056321   T   T   T
  0.6434597879230992  0.4251072317675977  0.3954619713651937   T   T   T
  0.7255707496321051  0.3166205563197408  0.4038613338419381   T   T   T
  0.6510056560696995  0.6986070363232386  0.3983939476497937   T   T   T
  0.5019311821176302  0.5553257274903132  0.3731000180557373   T   T   T
  0.2989603188221679  0.7916145519085518  0.4062236140069828   T   T   T
  0.3561459410207490  0.6662303322658403  0.4174906251723911   T   T   T
 
  0.00000000E+00  0.00000000E+00  0.00000000E+00
  0.00000000E+00  0.00000000E+00  0.00000000E+00
  0.00000000E+00  0.00000000E+00  0.00000000E+00
  0.00000000E+00  0.00000000E+00  0.00000000E+00
  0.00000000E+00  0.00000000E+00  0.00000000E+00
  0.00000000E+00  0.00000000E+00  0.00000000E+00
  0.00000000E+00  0.00000000E+00  0.00000000E+00
  0.00000000E+00  0.00000000E+00  0.00000000E+00
  0.00000000E+00  0.00000000E+00  0.00000000E+00
  0.00000000E+00  0.00000000E+00  0.00000000E+00
  0.00000000E+00  0.00000000E+00  0.00000000E+00
  0.00000000E+00  0.00000000E+00  0.00000000E+00
  0.00000000E+00  0.00000000E+00  0.00000000E+00
  0.00000000E+00  0.00000000E+00  0.00000000E+00
  0.00000000E+00  0.00000000E+00  0.00000000E+00
  0.00000000E+00  0.00000000E+00  0.00000000E+00
  0.00000000E+00  0.00000000E+00  0.00000000E+00
  0.00000000E+00  0.00000000E+00  0.00000000E+00
  0.00000000E+00  0.00000000E+00  0.00000000E+00
  0.00000000E+00  0.00000000E+00  0.00000000E+00
  0.00000000E+00  0.00000000E+00  0.00000000E+00
  0.00000000E+00  0.00000000E+00  0.00000000E+00
  0.00000000E+00  0.00000000E+00  0.00000000E+00
  0.00000000E+00  0.00000000E+00  0.00000000E+00
  0.00000000E+00  0.00000000E+00  0.00000000E+00
  0.00000000E+00  0.00000000E+00  0.00000000E+00
  0.00000000E+00  0.00000000E+00  0.00000000E+00
  0.00000000E+00  0.00000000E+00  0.00000000E+00
  0.00000000E+00  0.00000000E+00  0.00000000E+00
  0.00000000E+00  0.00000000E+00  0.00000000E+00
  0.00000000E+00  0.00000000E+00  0.00000000E+00
  0.00000000E+00  0.00000000E+00  0.00000000E+00
  0.00000000E+00  0.00000000E+00  0.00000000E+00
  0.00000000E+00  0.00000000E+00  0.00000000E+00
  0.00000000E+00  0.00000000E+00  0.00000000E+00
  0.00000000E+00  0.00000000E+00  0.00000000E+00
  0.00000000E+00  0.00000000E+00  0.00000000E+00
  0.00000000E+00  0.00000000E+00  0.00000000E+00
  0.00000000E+00  0.00000000E+00  0.00000000E+00
  0.00000000E+00  0.00000000E+00  0.00000000E+00
  0.00000000E+00  0.00000000E+00  0.00000000E+00
  0.00000000E+00  0.00000000E+00  0.00000000E+00
  0.00000000E+00  0.00000000E+00  0.00000000E+00
  0.00000000E+00  0.00000000E+00  0.00000000E+00
  0.00000000E+00  0.00000000E+00  0.00000000E+00
  0.00000000E+00  0.00000000E+00  0.00000000E+00
  0.00000000E+00  0.00000000E+00  0.00000000E+00
  0.00000000E+00  0.00000000E+00  0.00000000E+00
  0.00000000E+00  0.00000000E+00  0.00000000E+00
  0.00000000E+00  0.00000000E+00  0.00000000E+00
  0.00000000E+00  0.00000000E+00  0.00000000E+00
  0.00000000E+00  0.00000000E+00  0.00000000E+00
  0.00000000E+00  0.00000000E+00  0.00000000E+00
  0.00000000E+00  0.00000000E+00  0.00000000E+00
  0.00000000E+00  0.00000000E+00  0.00000000E+00
  0.00000000E+00  0.00000000E+00  0.00000000E+00
  0.00000000E+00  0.00000000E+00  0.00000000E+00
  0.00000000E+00  0.00000000E+00  0.00000000E+00
  0.00000000E+00  0.00000000E+00  0.00000000E+00
  0.00000000E+00  0.00000000E+00  0.00000000E+00
  0.00000000E+00  0.00000000E+00  0.00000000E+00
  0.00000000E+00  0.00000000E+00  0.00000000E+00
  0.00000000E+00  0.00000000E+00  0.00000000E+00
