Mg   O    H                             
   1.00000000000000     
     9.5557527542000003    0.0000000000000000    0.0000000000000000
    -4.7778763771000001    8.2755246374000002    0.0000000000000000
     0.0000000000000000    0.0000000000000000   32.6250953674000002
   Mg   O    H 
    45     6    12
Selective dynamics
Direct
  0.0000000000000000  0.0000000000000000  0.0000000000000000   F   F   F
  0.9995024571268448  0.9998491636304607  0.1579313517021189   T   T   T
  1.0007351756712928  0.0020894968438662  0.3296126810331733   T   T   T
  0.0000000098065698  0.3333333613114178  0.0000000000000000   F   F   F
  0.0002489049704309  0.3328203205973185  0.1573740849094456   T   T   T
  0.9963088137858612  0.3320707969450503  0.3098049404232903   T   T   T
  0.0000000196131396  0.6666667226228356  0.0000000000000000   F   F   F
  0.9989831307614842  0.6646068743016860  0.1573124346230788   T   T   T
  0.0025902301558692  0.6697343249621224  0.3130064331010587   T   T   T
  0.3333333416982782  0.0000000000000000  0.0000000000000000   F   F   F
  0.3340316308681669  0.9998711851892286  0.1571045986707132   T   T   T
  0.3275175537133926  0.9972817322272925  0.3079791987692344   T   T   T
  0.3333333515048480  0.3333333613114178  0.0000000000000000   F   F   F
  0.3335436090370829  0.3334612832343041  0.1576268594329120   T   T   T
  0.3244957425908073  0.3329157554898933  0.3133000245193422   T   T   T
  0.3333333597416868  0.6666667226228356  0.0000000000000000   F   F   F
  0.3333594825051387  0.6659867619609982  0.1582110317607693   T   T   T
  0.3224851049627209  0.6636356885830332  0.3301669299463707   T   T   T
  0.6666666832919077  0.0000000000000000  0.0000000000000000   F   F   F
  0.6664457465537441  0.9984443160006954  0.1572085038672613   T   T   T
  0.6648087816510201  0.9950771550358057  0.3129062620197519   T   T   T
  0.6666666806452426  0.3333333613114178  0.0000000000000000   F   F   F
  0.6663032973201956  0.3332047945670913  0.1582430800964673   T   T   T
  0.6611085975530662  0.3180081389504530  0.3221271158667829   T   T   T
  0.6666667030096960  0.6666667226228356  0.0000000000000000   F   F   F
  0.6673531720748305  0.6658911011834853  0.1584339473014005   T   T   T
  0.6748943470848818  0.6696811689396637  0.3151258581350942   T   T   T
  0.1111111284960415  0.2222222216206760  0.0798214519428555   F   F   F
  0.1103393065925676  0.2176761452198668  0.2358006739548982   T   T   T
  0.1111111350571008  0.5555556118124798  0.0798214519428555   F   F   F
  0.1154891668226445  0.5580415447777982  0.2357855922231961   T   T   T
  0.1111111554345570  0.8888889442433907  0.0798214519428555   F   F   F
  0.1079874435961589  0.8863757190996830  0.2335236014150403   T   T   T
  0.4444445023215593  0.2222222216206760  0.0798214519428555   F   F   F
  0.4464542146747915  0.2253714453185675  0.2355186442112135   T   T   T
  0.4444445016618417  0.5555556118124798  0.0798214519428555   F   F   F
  0.4453017262065881  0.5579117223485670  0.2369048832136736   T   T   T
  0.4444445131441270  0.8888889442433907  0.0798214519428555   F   F   F
  0.4442398546890786  0.8851221381945200  0.2351344584330305   T   T   T
  0.7777777941022634  0.2222222216206760  0.0798214519428555   F   F   F
  0.7739272481976754  0.2191130984568353  0.2344612993866872   T   T   T
  0.7777778058957736  0.5555556118124798  0.0798214519428555   F   F   F
  0.7757478846356429  0.5499334324220206  0.2375891071757169   T   T   T
  0.7777778387265144  0.8888889442433907  0.0798214519428555   F   F   F
  0.7811892958522806  0.8884567646431272  0.2369351357781670   T   T   T
  0.9914153432983136  0.0081599891656404  0.3961963595711073   T   T   T
  0.2769229817771161  0.9717448124801604  0.4117499819341812   T   T   T
  0.8950714338563180  0.2501786431919631  0.4111572720310436   T   T   T
  0.6384334981107037  0.3215415083022322  0.3888201430932108   T   T   T
  0.6181768421608593  0.5993271790323850  0.3825132361757929   T   T   T
  0.2997989393990047  0.6928602221994362  0.3966537304023107   T   T   T
  0.9709404623729746  0.0914179682528962  0.4080940800010546   T   T   T
  0.0820764335954314  0.0101598692662871  0.4110778903426964   T   T   T
  0.3816491005023526  0.0727033459995619  0.4117348956683274   T   T   T
  0.2463204459141123  0.9575371577838802  0.3819937348196642   T   T   T
  0.9945268106197014  0.3551359165743275  0.4081438932122988   T   T   T
  0.8634493210979828  0.2163509116388561  0.3818982957056344   T   T   T
  0.6434597879230989  0.4251072317675951  0.3954619713651965   T   T   T
  0.7255707496321051  0.3166205563197397  0.4038613338419412   T   T   T
  0.6510056560697028  0.6986070363232397  0.3983939476497947   T   T   T
  0.5019311821176308  0.5553257274903108  0.3731000180557377   T   T   T
  0.2989603188221711  0.7916145519085485  0.4062236140069793   T   T   T
  0.3561459410207473  0.6662303322658414  0.4174906251723940   T   T   T
 
  0.00000000E+00  0.00000000E+00  0.00000000E+00
  0.00000000E+00  0.00000000E+00  0.00000000E+00
  0.00000000E+00  0.00000000E+00  0.00000000E+00
  0.00000000E+00  0.00000000E+00  0.00000000E+00
  0.00000000E+00  0.00000000E+00  0.00000000E+00
  0.00000000E+00  0.00000000E+00  0.00000000E+00
  0.00000000E+00  0.00000000E+00  0.00000000E+00
  0.00000000E+00  0.00000000E+00  0.00000000E+00
  0.00000000E+00  0.00000000E+00  0.00000000E+00
  0.00000000E+00  0.00000000E+00  0.00000000E+00
  0.00000000E+00  0.00000000E+00  0.00000000E+00
  0.00000000E+00  0.00000000E+00  0.00000000E+00
  0.00000000E+00  0.00000000E+00  0.00000000E+00
  0.00000000E+00  0.00000000E+00  0.00000000E+00
  0.00000000E+00  0.00000000E+00  0.00000000E+00
  0.00000000E+00  0.00000000E+00  0.00000000E+00
  0.00000000E+00  0.00000000E+00  0.00000000E+00
  0.00000000E+00  0.00000000E+00  0.00000000E+00
  0.00000000E+00  0.00000000E+00  0.00000000E+00
  0.00000000E+00  0.00000000E+00  0.00000000E+00
  0.00000000E+00  0.00000000E+00  0.00000000E+00
  0.00000000E+00  0.00000000E+00  0.00000000E+00
  0.00000000E+00  0.00000000E+00  0.00000000E+00
  0.00000000E+00  0.00000000E+00  0.00000000E+00
  0.00000000E+00  0.00000000E+00  0.00000000E+00
  0.00000000E+00  0.00000000E+00  0.00000000E+00
  0.00000000E+00  0.00000000E+00  0.00000000E+00
  0.00000000E+00  0.00000000E+00  0.00000000E+00
  0.00000000E+00  0.00000000E+00  0.00000000E+00
  0.00000000E+00  0.00000000E+00  0.00000000E+00
  0.00000000E+00  0.00000000E+00  0.00000000E+00
  0.00000000E+00  0.00000000E+00  0.00000000E+00
  0.00000000E+00  0.00000000E+00  0.00000000E+00
  0.00000000E+00  0.00000000E+00  0.00000000E+00
  0.00000000E+00  0.00000000E+00  0.00000000E+00
  0.00000000E+00  0.00000000E+00  0.00000000E+00
  0.00000000E+00  0.00000000E+00  0.00000000E+00
  0.00000000E+00  0.00000000E+00  0.00000000E+00
  0.00000000E+00  0.00000000E+00  0.00000000E+00
  0.00000000E+00  0.00000000E+00  0.00000000E+00
  0.00000000E+00  0.00000000E+00  0.00000000E+00
  0.00000000E+00  0.00000000E+00  0.00000000E+00
  0.00000000E+00  0.00000000E+00  0.00000000E+00
  0.00000000E+00  0.00000000E+00  0.00000000E+00
  0.00000000E+00  0.00000000E+00  0.00000000E+00
  0.00000000E+00  0.00000000E+00  0.00000000E+00
  0.00000000E+00  0.00000000E+00  0.00000000E+00
  0.00000000E+00  0.00000000E+00  0.00000000E+00
  0.00000000E+00  0.00000000E+00  0.00000000E+00
  0.00000000E+00  0.00000000E+00  0.00000000E+00
  0.00000000E+00  0.00000000E+00  0.00000000E+00
  0.00000000E+00  0.00000000E+00  0.00000000E+00
  0.00000000E+00  0.00000000E+00  0.00000000E+00
  0.00000000E+00  0.00000000E+00  0.00000000E+00
  0.00000000E+00  0.00000000E+00  0.00000000E+00
  0.00000000E+00  0.00000000E+00  0.00000000E+00
  0.00000000E+00  0.00000000E+00  0.00000000E+00
  0.00000000E+00  0.00000000E+00  0.00000000E+00
  0.00000000E+00  0.00000000E+00  0.00000000E+00
  0.00000000E+00  0.00000000E+00  0.00000000E+00
  0.00000000E+00  0.00000000E+00  0.00000000E+00
  0.00000000E+00  0.00000000E+00  0.00000000E+00
  0.00000000E+00  0.00000000E+00  0.00000000E+00
