Mg   O    H                             
   1.00000000000000     
     9.5557527542000003    0.0000000000000000    0.0000000000000000
    -4.7778763771000001    8.2755246374000002    0.0000000000000000
     0.0000000000000000    0.0000000000000000   32.6250953674000002
   Mg   O    H 
    45     6    12
Selective dynamics
Direct
  0.0000000000000000  0.0000000000000000  0.0000000000000000   F   F   F
  0.9989250483606114  0.9988351890194664  0.1580201310448786   T   T   T
  0.0015033466870520  0.0031867654685556  0.3305293192677752   T   T   T
  0.0000000098065698  0.3333333613114178  0.0000000000000000   F   F   F
  0.0000760096229513  0.3325671487945101  0.1575161471987059   T   T   T
  0.9905713753277539  0.3302859305524777  0.3099372106966101   T   T   T
  0.0000000196131396  0.6666667226228356  0.0000000000000000   F   F   F
  0.9987316142059441  0.6651054518387411  0.1576206464306438   T   T   T
  0.0026072140132740  0.6710623423882822  0.3136412184213881   T   T   T
  0.3333333416982782  0.0000000000000000  0.0000000000000000   F   F   F
  0.3332814109348377  0.9991758827870783  0.1570554757519318   T   T   T
  0.3254821301674156  0.9967596044958213  0.3084807857042620   T   T   T
  0.3333333515048480  0.3333333613114178  0.0000000000000000   F   F   F
  0.3325307022070305  0.3317818597961306  0.1573019563239342   T   T   T
  0.3215142773222581  0.3270812333109774  0.3130371487217189   T   T   T
  0.3333333597416868  0.6666667226228356  0.0000000000000000   F   F   F
  0.3324517995476057  0.6662790365962650  0.1580274421972376   T   T   T
  0.3187224996135711  0.6678680416767477  0.3318831222901082   T   T   T
  0.6666666832919077  0.0000000000000000  0.0000000000000000   F   F   F
  0.6664538555258162  0.9979320193795544  0.1574806399471029   T   T   T
  0.6644805657848849  0.9970099591378556  0.3134180314956936   T   T   T
  0.6666666806452426  0.3333333613114178  0.0000000000000000   F   F   F
  0.6665062206186505  0.3336146961589606  0.1587898048302847   T   T   T
  0.6591489571362388  0.3132119407321312  0.3251566049624373   T   T   T
  0.6666667030096960  0.6666667226228356  0.0000000000000000   F   F   F
  0.6688118300646977  0.6663837850346255  0.1588419646756449   T   T   T
  0.6597286768155683  0.6654868925717849  0.3261338908177294   T   T   T
  0.1111111284960415  0.2222222216206760  0.0798214519428555   F   F   F
  0.1091792097885573  0.2180027977775225  0.2361059197361470   T   T   T
  0.1111111350571008  0.5555556118124798  0.0798214519428555   F   F   F
  0.1155658952696115  0.5571903748467477  0.2363410037250659   T   T   T
  0.1111111554345570  0.8888889442433907  0.0798214519428555   F   F   F
  0.1070623612793327  0.8858754602850212  0.2341906060239651   T   T   T
  0.4444445023215593  0.2222222216206760  0.0798214519428555   F   F   F
  0.4458224209721493  0.2251159628863491  0.2361098096421799   T   T   T
  0.4444445016618417  0.5555556118124798  0.0798214519428555   F   F   F
  0.4455521461673655  0.5562659885559214  0.2352702518014311   T   T   T
  0.4444445131441270  0.8888889442433907  0.0798214519428555   F   F   F
  0.4432254405923857  0.8827573026160920  0.2358412096858515   T   T   T
  0.7777777941022634  0.2222222216206760  0.0798214519428555   F   F   F
  0.7728902360778207  0.2177721805148423  0.2347423914976687   T   T   T
  0.7777778058957736  0.5555556118124798  0.0798214519428555   F   F   F
  0.7717415130316851  0.5490543173155373  0.2410132784082535   T   T   T
  0.7777778387265144  0.8888889442433907  0.0798214519428555   F   F   F
  0.7796399342868909  0.8839465260989385  0.2398318191652109   T   T   T
  0.9950242558086728  0.0126030181439418  0.3960005914226343   T   T   T
  0.2800122949758901  0.9706720392161827  0.4120707387254896   T   T   T
  0.9008689144860114  0.2462231557616548  0.4119884531627136   T   T   T
  0.6344600254303785  0.3329960815392994  0.3879794584316372   T   T   T
  0.6609258319901343  0.6048623381779521  0.3835354613521744   T   T   T
  0.3053536355802962  0.6908109023474225  0.3968167067093162   T   T   T
  0.9730048764050565  0.0952037557874448  0.4079469291335442   T   T   T
  0.0825596608021542  0.0114432470628714  0.4115625225984871   T   T   T
  0.3827920967507836  0.0738112861260021  0.4116699845152780   T   T   T
  0.2464111902960369  0.9551587266339823  0.3826219876369663   T   T   T
  0.9956493102725688  0.3544687589597260  0.4090260599622013   T   T   T
  0.8607651051687597  0.2176797547662517  0.3831713769061409   T   T   T
  0.6483926902588166  0.4520162702021793  0.3914815940518181   T   T   T
  0.7162419517942809  0.3264925720729295  0.4046770365901651   T   T   T
  0.6968100231852716  0.6857691177839769  0.4049974764728717   T   T   T
  0.4172739722376519  0.5373254499922453  0.3369525460715153   T   T   T
  0.3037662425522711  0.7884134329851022  0.4069249328043867   T   T   T
  0.3766494088587109  0.6727153226511717  0.4147287758228231   T   T   T
 
  0.00000000E+00  0.00000000E+00  0.00000000E+00
  0.00000000E+00  0.00000000E+00  0.00000000E+00
  0.00000000E+00  0.00000000E+00  0.00000000E+00
  0.00000000E+00  0.00000000E+00  0.00000000E+00
  0.00000000E+00  0.00000000E+00  0.00000000E+00
  0.00000000E+00  0.00000000E+00  0.00000000E+00
  0.00000000E+00  0.00000000E+00  0.00000000E+00
  0.00000000E+00  0.00000000E+00  0.00000000E+00
  0.00000000E+00  0.00000000E+00  0.00000000E+00
  0.00000000E+00  0.00000000E+00  0.00000000E+00
  0.00000000E+00  0.00000000E+00  0.00000000E+00
  0.00000000E+00  0.00000000E+00  0.00000000E+00
  0.00000000E+00  0.00000000E+00  0.00000000E+00
  0.00000000E+00  0.00000000E+00  0.00000000E+00
  0.00000000E+00  0.00000000E+00  0.00000000E+00
  0.00000000E+00  0.00000000E+00  0.00000000E+00
  0.00000000E+00  0.00000000E+00  0.00000000E+00
  0.00000000E+00  0.00000000E+00  0.00000000E+00
  0.00000000E+00  0.00000000E+00  0.00000000E+00
  0.00000000E+00  0.00000000E+00  0.00000000E+00
  0.00000000E+00  0.00000000E+00  0.00000000E+00
  0.00000000E+00  0.00000000E+00  0.00000000E+00
  0.00000000E+00  0.00000000E+00  0.00000000E+00
  0.00000000E+00  0.00000000E+00  0.00000000E+00
  0.00000000E+00  0.00000000E+00  0.00000000E+00
  0.00000000E+00  0.00000000E+00  0.00000000E+00
  0.00000000E+00  0.00000000E+00  0.00000000E+00
  0.00000000E+00  0.00000000E+00  0.00000000E+00
  0.00000000E+00  0.00000000E+00  0.00000000E+00
  0.00000000E+00  0.00000000E+00  0.00000000E+00
  0.00000000E+00  0.00000000E+00  0.00000000E+00
  0.00000000E+00  0.00000000E+00  0.00000000E+00
  0.00000000E+00  0.00000000E+00  0.00000000E+00
  0.00000000E+00  0.00000000E+00  0.00000000E+00
  0.00000000E+00  0.00000000E+00  0.00000000E+00
  0.00000000E+00  0.00000000E+00  0.00000000E+00
  0.00000000E+00  0.00000000E+00  0.00000000E+00
  0.00000000E+00  0.00000000E+00  0.00000000E+00
  0.00000000E+00  0.00000000E+00  0.00000000E+00
  0.00000000E+00  0.00000000E+00  0.00000000E+00
  0.00000000E+00  0.00000000E+00  0.00000000E+00
  0.00000000E+00  0.00000000E+00  0.00000000E+00
  0.00000000E+00  0.00000000E+00  0.00000000E+00
  0.00000000E+00  0.00000000E+00  0.00000000E+00
  0.00000000E+00  0.00000000E+00  0.00000000E+00
  0.00000000E+00  0.00000000E+00  0.00000000E+00
  0.00000000E+00  0.00000000E+00  0.00000000E+00
  0.00000000E+00  0.00000000E+00  0.00000000E+00
  0.00000000E+00  0.00000000E+00  0.00000000E+00
  0.00000000E+00  0.00000000E+00  0.00000000E+00
  0.00000000E+00  0.00000000E+00  0.00000000E+00
  0.00000000E+00  0.00000000E+00  0.00000000E+00
  0.00000000E+00  0.00000000E+00  0.00000000E+00
  0.00000000E+00  0.00000000E+00  0.00000000E+00
  0.00000000E+00  0.00000000E+00  0.00000000E+00
  0.00000000E+00  0.00000000E+00  0.00000000E+00
  0.00000000E+00  0.00000000E+00  0.00000000E+00
  0.00000000E+00  0.00000000E+00  0.00000000E+00
  0.00000000E+00  0.00000000E+00  0.00000000E+00
  0.00000000E+00  0.00000000E+00  0.00000000E+00
  0.00000000E+00  0.00000000E+00  0.00000000E+00
  0.00000000E+00  0.00000000E+00  0.00000000E+00
  0.00000000E+00  0.00000000E+00  0.00000000E+00
