Mg   O    H                             
   1.00000000000000     
     9.5557527542000003    0.0000000000000000    0.0000000000000000
    -4.7778763771000001    8.2755246374000002    0.0000000000000000
     0.0000000000000000    0.0000000000000000   32.6250953674000002
   Mg   O    H 
    45     6    12
Selective dynamics
Direct
  0.0000000000000000  0.0000000000000000  0.0000000000000000   F   F   F
  0.9989250483606104  0.9988351890194657  0.1580201310448796   T   T   T
  0.0015033466870523  0.0031867654685566  0.3305293192677733   T   T   T
  0.0000000098065698  0.3333333613114178  0.0000000000000000   F   F   F
  0.0000760096229514  0.3325671487945090  0.1575161471987092   T   T   T
  0.9905713753277561  0.3302859305524807  0.3099372106966099   T   T   T
  0.0000000196131396  0.6666667226228356  0.0000000000000000   F   F   F
  0.9987316142059449  0.6651054518387400  0.1576206464306408   T   T   T
  0.0026072140132741  0.6710623423882843  0.3136412184213860   T   T   T
  0.3333333416982782  0.0000000000000000  0.0000000000000000   F   F   F
  0.3332814109348350  0.9991758827870796  0.1570554757519292   T   T   T
  0.3254821301674144  0.9967596044958233  0.3084807857042632   T   T   T
  0.3333333515048480  0.3333333613114178  0.0000000000000000   F   F   F
  0.3325307022070305  0.3317818597961316  0.1573019563239374   T   T   T
  0.3215142773222555  0.3270812333109779  0.3130371487217191   T   T   T
  0.3333333597416868  0.6666667226228356  0.0000000000000000   F   F   F
  0.3324517995476028  0.6662790365962653  0.1580274421972359   T   T   T
  0.3187224996135729  0.6678680416767446  0.3318831222901093   T   T   T
  0.6666666832919077  0.0000000000000000  0.0000000000000000   F   F   F
  0.6664538555258197  0.9979320193795550  0.1574806399471018   T   T   T
  0.6644805657848832  0.9970099591378563  0.3134180314956931   T   T   T
  0.6666666806452426  0.3333333613114178  0.0000000000000000   F   F   F
  0.6665062206186536  0.3336146961589586  0.1587898048302842   T   T   T
  0.6591489571362374  0.3132119407321277  0.3251566049624388   T   T   T
  0.6666667030096960  0.6666667226228356  0.0000000000000000   F   F   F
  0.6688118300647012  0.6663837850346258  0.1588419646756468   T   T   T
  0.6597286768155654  0.6654868925717835  0.3261338908177308   T   T   T
  0.1111111284960415  0.2222222216206760  0.0798214519428555   F   F   F
  0.1091792097885602  0.2180027977775207  0.2361059197361486   T   T   T
  0.1111111350571008  0.5555556118124798  0.0798214519428555   F   F   F
  0.1155658952696112  0.5571903748467452  0.2363410037250626   T   T   T
  0.1111111554345570  0.8888889442433907  0.0798214519428555   F   F   F
  0.1070623612793292  0.8858754602850185  0.2341906060239656   T   T   T
  0.4444445023215593  0.2222222216206760  0.0798214519428555   F   F   F
  0.4458224209721491  0.2251159628863489  0.2361098096421811   T   T   T
  0.4444445016618417  0.5555556118124798  0.0798214519428555   F   F   F
  0.4455521461673627  0.5562659885559237  0.2352702518014293   T   T   T
  0.4444445131441270  0.8888889442433907  0.0798214519428555   F   F   F
  0.4432254405923851  0.8827573026160909  0.2358412096858536   T   T   T
  0.7777777941022634  0.2222222216206760  0.0798214519428555   F   F   F
  0.7728902360778221  0.2177721805148456  0.2347423914976677   T   T   T
  0.7777778058957736  0.5555556118124798  0.0798214519428555   F   F   F
  0.7717415130316843  0.5490543173155384  0.2410132784082562   T   T   T
  0.7777778387265144  0.8888889442433907  0.0798214519428555   F   F   F
  0.7796399342868874  0.8839465260989371  0.2398318191652089   T   T   T
  0.9950242558086758  0.0126030181439405  0.3960005914226351   T   T   T
  0.2800122949758896  0.9706720392161838  0.4120707387254920   T   T   T
  0.9008689144860111  0.2462231557616541  0.4119884531627105   T   T   T
  0.6344600254303767  0.3329960815392966  0.3879794584316340   T   T   T
  0.6609258319901326  0.6048623381779513  0.3835354613521716   T   T   T
  0.3053536355802928  0.6908109023474240  0.3968167067093156   T   T   T
  0.9730048764050536  0.0952037557874478  0.4079469291335447   T   T   T
  0.0825596608021546  0.0114432470628715  0.4115625225984907   T   T   T
  0.3827920967507811  0.0738112861260033  0.4116699845152795   T   T   T
  0.2464111902960384  0.9551587266339808  0.3826219876369681   T   T   T
  0.9956493102725705  0.3544687589597238  0.4090260599622043   T   T   T
  0.8607651051687574  0.2176797547662524  0.3831713769061399   T   T   T
  0.6483926902588139  0.4520162702021822  0.3914815940518193   T   T   T
  0.7162419517942822  0.3264925720729270  0.4046770365901679   T   T   T
  0.6968100231852704  0.6857691177839744  0.4049974764728717   T   T   T
  0.4172739722376498  0.5373254499922476  0.3369525460715147   T   T   T
  0.3037662425522697  0.7884134329851029  0.4069249328043834   T   T   T
  0.3766494088587096  0.6727153226511718  0.4147287758228230   T   T   T
 
  0.00000000E+00  0.00000000E+00  0.00000000E+00
  0.00000000E+00  0.00000000E+00  0.00000000E+00
  0.00000000E+00  0.00000000E+00  0.00000000E+00
  0.00000000E+00  0.00000000E+00  0.00000000E+00
  0.00000000E+00  0.00000000E+00  0.00000000E+00
  0.00000000E+00  0.00000000E+00  0.00000000E+00
  0.00000000E+00  0.00000000E+00  0.00000000E+00
  0.00000000E+00  0.00000000E+00  0.00000000E+00
  0.00000000E+00  0.00000000E+00  0.00000000E+00
  0.00000000E+00  0.00000000E+00  0.00000000E+00
  0.00000000E+00  0.00000000E+00  0.00000000E+00
  0.00000000E+00  0.00000000E+00  0.00000000E+00
  0.00000000E+00  0.00000000E+00  0.00000000E+00
  0.00000000E+00  0.00000000E+00  0.00000000E+00
  0.00000000E+00  0.00000000E+00  0.00000000E+00
  0.00000000E+00  0.00000000E+00  0.00000000E+00
  0.00000000E+00  0.00000000E+00  0.00000000E+00
  0.00000000E+00  0.00000000E+00  0.00000000E+00
  0.00000000E+00  0.00000000E+00  0.00000000E+00
  0.00000000E+00  0.00000000E+00  0.00000000E+00
  0.00000000E+00  0.00000000E+00  0.00000000E+00
  0.00000000E+00  0.00000000E+00  0.00000000E+00
  0.00000000E+00  0.00000000E+00  0.00000000E+00
  0.00000000E+00  0.00000000E+00  0.00000000E+00
  0.00000000E+00  0.00000000E+00  0.00000000E+00
  0.00000000E+00  0.00000000E+00  0.00000000E+00
  0.00000000E+00  0.00000000E+00  0.00000000E+00
  0.00000000E+00  0.00000000E+00  0.00000000E+00
  0.00000000E+00  0.00000000E+00  0.00000000E+00
  0.00000000E+00  0.00000000E+00  0.00000000E+00
  0.00000000E+00  0.00000000E+00  0.00000000E+00
  0.00000000E+00  0.00000000E+00  0.00000000E+00
  0.00000000E+00  0.00000000E+00  0.00000000E+00
  0.00000000E+00  0.00000000E+00  0.00000000E+00
  0.00000000E+00  0.00000000E+00  0.00000000E+00
  0.00000000E+00  0.00000000E+00  0.00000000E+00
  0.00000000E+00  0.00000000E+00  0.00000000E+00
  0.00000000E+00  0.00000000E+00  0.00000000E+00
  0.00000000E+00  0.00000000E+00  0.00000000E+00
  0.00000000E+00  0.00000000E+00  0.00000000E+00
  0.00000000E+00  0.00000000E+00  0.00000000E+00
  0.00000000E+00  0.00000000E+00  0.00000000E+00
  0.00000000E+00  0.00000000E+00  0.00000000E+00
  0.00000000E+00  0.00000000E+00  0.00000000E+00
  0.00000000E+00  0.00000000E+00  0.00000000E+00
  0.00000000E+00  0.00000000E+00  0.00000000E+00
  0.00000000E+00  0.00000000E+00  0.00000000E+00
  0.00000000E+00  0.00000000E+00  0.00000000E+00
  0.00000000E+00  0.00000000E+00  0.00000000E+00
  0.00000000E+00  0.00000000E+00  0.00000000E+00
  0.00000000E+00  0.00000000E+00  0.00000000E+00
  0.00000000E+00  0.00000000E+00  0.00000000E+00
  0.00000000E+00  0.00000000E+00  0.00000000E+00
  0.00000000E+00  0.00000000E+00  0.00000000E+00
  0.00000000E+00  0.00000000E+00  0.00000000E+00
  0.00000000E+00  0.00000000E+00  0.00000000E+00
  0.00000000E+00  0.00000000E+00  0.00000000E+00
  0.00000000E+00  0.00000000E+00  0.00000000E+00
  0.00000000E+00  0.00000000E+00  0.00000000E+00
  0.00000000E+00  0.00000000E+00  0.00000000E+00
  0.00000000E+00  0.00000000E+00  0.00000000E+00
  0.00000000E+00  0.00000000E+00  0.00000000E+00
  0.00000000E+00  0.00000000E+00  0.00000000E+00
