Mg   O    H                             
   1.00000000000000     
     9.5557527542000003    0.0000000000000000    0.0000000000000000
    -4.7778763771000001    8.2755246374000002    0.0000000000000000
     0.0000000000000000    0.0000000000000000   32.6250953674000002
   Mg   O    H 
    45     6    12
Selective dynamics
Direct
  0.0000000000000000  0.0000000000000000  0.0000000000000000   F   F   F
  0.9989918500567825  0.0011976839411716  0.1578961634626026   T   T   T
  0.9930620567831454  0.9992190175944629  0.3292648414698647   T   T   T
  0.0000000098065698  0.3333333613114178  0.0000000000000000   F   F   F
  0.9997300262029825  0.3344015543647743  0.1573186642776037   T   T   T
  0.9975522983306107  0.3371599981497013  0.3107141618675797   T   T   T
  0.0000000196131396  0.6666667226228356  0.0000000000000000   F   F   F
  0.9987914184206872  0.6667422658778861  0.1571587749519168   T   T   T
  0.9982527096969562  0.6718494586067720  0.3132340343242461   T   T   T
  0.3333333416982782  0.0000000000000000  0.0000000000000000   F   F   F
  0.3332226721861957  0.0010726675836707  0.1572044670361805   T   T   T
  0.3286848026424281  0.0037495104458287  0.3093283105950633   T   T   T
  0.3333333515048480  0.3333333613114178  0.0000000000000000   F   F   F
  0.3320946141801144  0.3334725351669618  0.1571882855092497   T   T   T
  0.3296541542119513  0.3389185308495613  0.3143023026439309   T   T   T
  0.3333333597416868  0.6666667226228356  0.0000000000000000   F   F   F
  0.3322581616848908  0.6678487112067089  0.1578965257484555   T   T   T
  0.3284913520979202  0.6702021321586926  0.3305916273892677   T   T   T
  0.6666666832919077  0.0000000000000000  0.0000000000000000   F   F   F
  0.6655991902440732  0.0004847469626554  0.1571974682305139   T   T   T
  0.6646176510725041  0.0046866652589443  0.3130587335073400   T   T   T
  0.6666666806452426  0.3333333613114178  0.0000000000000000   F   F   F
  0.6656483853531014  0.3343160770872089  0.1580000745119463   T   T   T
  0.6608863032721715  0.3347318003456508  0.3280767634651482   T   T   T
  0.6666667030096960  0.6666667226228356  0.0000000000000000   F   F   F
  0.6663673291365342  0.6676880024957015  0.1572177561761592   T   T   T
  0.6605199212421482  0.6693795722809242  0.3096275294900934   T   T   T
  0.1111111284960415  0.2222222216206760  0.0798214519428555   F   F   F
  0.1093346222586788  0.2200824960675902  0.2360800519402062   T   T   T
  0.1111111350571008  0.5555556118124798  0.0798214519428555   F   F   F
  0.1131757238695599  0.5603388031910725  0.2358000627470318   T   T   T
  0.1111111554345570  0.8888889442433907  0.0798214519428555   F   F   F
  0.1070392898384753  0.8897109902497959  0.2343125992758530   T   T   T
  0.4444445023215593  0.2222222216206760  0.0798214519428555   F   F   F
  0.4465235207158358  0.2280104745334910  0.2357713756181568   T   T   T
  0.4444445016618417  0.5555556118124798  0.0798214519428555   F   F   F
  0.4398277448545684  0.5562424463279854  0.2344703508373485   T   T   T
  0.4444445131441270  0.8888889442433907  0.0798214519428555   F   F   F
  0.4427684280840865  0.8867730136175922  0.2357464250404817   T   T   T
  0.7777777941022634  0.2222222216206760  0.0798214519428555   F   F   F
  0.7744166685192226  0.2241834923766035  0.2348701645659403   T   T   T
  0.7777778058957736  0.5555556118124798  0.0798214519428555   F   F   F
  0.7760704893867754  0.5538531528288857  0.2357606317638457   T   T   T
  0.7777778387265144  0.8888889442433907  0.0798214519428555   F   F   F
  0.7796081457236923  0.8935740032654138  0.2355255407096948   T   T   T
  0.9697813447547645  0.9828368841114639  0.3962389042182437   T   T   T
  0.2529520636981673  0.9473214527607894  0.4133935243062510   T   T   T
  0.8923208732727517  0.2371200326671854  0.4122200965234128   T   T   T
  0.6534132786868838  0.3390635612991204  0.3939367186189742   T   T   T
  0.6175867489218305  0.6110296978944874  0.4133651186519884   T   T   T
  0.3208161948524193  0.6877561727860169  0.3966862630583634   T   T   T
  0.9515570607152952  0.0668207234574396  0.4087602676475726   T   T   T
  0.0608872638855615  0.9830335301877824  0.4105893120559472   T   T   T
  0.3536019059603959  0.0513741834491697  0.4157823565812393   T   T   T
  0.2334684514982186  0.9356248801899412  0.3830711504406423   T   T   T
  0.9966793825343245  0.3380772096888052  0.4114167024566555   T   T   T
  0.8645148354877605  0.2130366542306916  0.3824150142953258   T   T   T
  0.6546743675764333  0.4350754322764132  0.4060943991387944   T   T   T
  0.7333173220442077  0.3201644463421189  0.4082850826236566   T   T   T
  0.7193055745771773  0.7136692607045134  0.4099595212076608   T   T   T
  0.5686381799986435  0.5899902035403883  0.3854899913231193   T   T   T
  0.3043531004144953  0.7750671968051037  0.4078080475092918   T   T   T
  0.4061913102066796  0.6853436065094058  0.4127876535185706   T   T   T
 
  0.00000000E+00  0.00000000E+00  0.00000000E+00
  0.00000000E+00  0.00000000E+00  0.00000000E+00
  0.00000000E+00  0.00000000E+00  0.00000000E+00
  0.00000000E+00  0.00000000E+00  0.00000000E+00
  0.00000000E+00  0.00000000E+00  0.00000000E+00
  0.00000000E+00  0.00000000E+00  0.00000000E+00
  0.00000000E+00  0.00000000E+00  0.00000000E+00
  0.00000000E+00  0.00000000E+00  0.00000000E+00
  0.00000000E+00  0.00000000E+00  0.00000000E+00
  0.00000000E+00  0.00000000E+00  0.00000000E+00
  0.00000000E+00  0.00000000E+00  0.00000000E+00
  0.00000000E+00  0.00000000E+00  0.00000000E+00
  0.00000000E+00  0.00000000E+00  0.00000000E+00
  0.00000000E+00  0.00000000E+00  0.00000000E+00
  0.00000000E+00  0.00000000E+00  0.00000000E+00
  0.00000000E+00  0.00000000E+00  0.00000000E+00
  0.00000000E+00  0.00000000E+00  0.00000000E+00
  0.00000000E+00  0.00000000E+00  0.00000000E+00
  0.00000000E+00  0.00000000E+00  0.00000000E+00
  0.00000000E+00  0.00000000E+00  0.00000000E+00
  0.00000000E+00  0.00000000E+00  0.00000000E+00
  0.00000000E+00  0.00000000E+00  0.00000000E+00
  0.00000000E+00  0.00000000E+00  0.00000000E+00
  0.00000000E+00  0.00000000E+00  0.00000000E+00
  0.00000000E+00  0.00000000E+00  0.00000000E+00
  0.00000000E+00  0.00000000E+00  0.00000000E+00
  0.00000000E+00  0.00000000E+00  0.00000000E+00
  0.00000000E+00  0.00000000E+00  0.00000000E+00
  0.00000000E+00  0.00000000E+00  0.00000000E+00
  0.00000000E+00  0.00000000E+00  0.00000000E+00
  0.00000000E+00  0.00000000E+00  0.00000000E+00
  0.00000000E+00  0.00000000E+00  0.00000000E+00
  0.00000000E+00  0.00000000E+00  0.00000000E+00
  0.00000000E+00  0.00000000E+00  0.00000000E+00
  0.00000000E+00  0.00000000E+00  0.00000000E+00
  0.00000000E+00  0.00000000E+00  0.00000000E+00
  0.00000000E+00  0.00000000E+00  0.00000000E+00
  0.00000000E+00  0.00000000E+00  0.00000000E+00
  0.00000000E+00  0.00000000E+00  0.00000000E+00
  0.00000000E+00  0.00000000E+00  0.00000000E+00
  0.00000000E+00  0.00000000E+00  0.00000000E+00
  0.00000000E+00  0.00000000E+00  0.00000000E+00
  0.00000000E+00  0.00000000E+00  0.00000000E+00
  0.00000000E+00  0.00000000E+00  0.00000000E+00
  0.00000000E+00  0.00000000E+00  0.00000000E+00
  0.00000000E+00  0.00000000E+00  0.00000000E+00
  0.00000000E+00  0.00000000E+00  0.00000000E+00
  0.00000000E+00  0.00000000E+00  0.00000000E+00
  0.00000000E+00  0.00000000E+00  0.00000000E+00
  0.00000000E+00  0.00000000E+00  0.00000000E+00
  0.00000000E+00  0.00000000E+00  0.00000000E+00
  0.00000000E+00  0.00000000E+00  0.00000000E+00
  0.00000000E+00  0.00000000E+00  0.00000000E+00
  0.00000000E+00  0.00000000E+00  0.00000000E+00
  0.00000000E+00  0.00000000E+00  0.00000000E+00
  0.00000000E+00  0.00000000E+00  0.00000000E+00
  0.00000000E+00  0.00000000E+00  0.00000000E+00
  0.00000000E+00  0.00000000E+00  0.00000000E+00
  0.00000000E+00  0.00000000E+00  0.00000000E+00
  0.00000000E+00  0.00000000E+00  0.00000000E+00
  0.00000000E+00  0.00000000E+00  0.00000000E+00
  0.00000000E+00  0.00000000E+00  0.00000000E+00
  0.00000000E+00  0.00000000E+00  0.00000000E+00
