Mg   O    H                             
   1.00000000000000     
     9.5557527542000003    0.0000000000000000    0.0000000000000000
    -4.7778763771000001    8.2755246374000002    0.0000000000000000
     0.0000000000000000    0.0000000000000000   32.6250953674000002
   Mg   O    H 
    45     6    12
Selective dynamics
Direct
  0.0000000000000000  0.0000000000000000  0.0000000000000000   F   F   F
  0.9989918500567845  0.0011976839411750  0.1578961634626007   T   T   T
  0.9930620567831437  0.9992190175944644  0.3292648414698663   T   T   T
  0.0000000098065698  0.3333333613114178  0.0000000000000000   F   F   F
  0.9997300262029830  0.3344015543647713  0.1573186642776046   T   T   T
  0.9975522983306121  0.3371599981496980  0.3107141618675818   T   T   T
  0.0000000196131396  0.6666667226228356  0.0000000000000000   F   F   F
  0.9987914184206890  0.6667422658778839  0.1571587749519161   T   T   T
  0.9982527096969589  0.6718494586067753  0.3132340343242477   T   T   T
  0.3333333416982782  0.0000000000000000  0.0000000000000000   F   F   F
  0.3332226721861943  0.0010726675836719  0.1572044670361773   T   T   T
  0.3286848026424253  0.0037495104458275  0.3093283105950643   T   T   T
  0.3333333515048480  0.3333333613114178  0.0000000000000000   F   F   F
  0.3320946141801122  0.3334725351669587  0.1571882855092530   T   T   T
  0.3296541542119528  0.3389185308495594  0.3143023026439344   T   T   T
  0.3333333597416868  0.6666667226228356  0.0000000000000000   F   F   F
  0.3322581616848875  0.6678487112067083  0.1578965257484587   T   T   T
  0.3284913520979198  0.6702021321586948  0.3305916273892673   T   T   T
  0.6666666832919077  0.0000000000000000  0.0000000000000000   F   F   F
  0.6655991902440728  0.0004847469626529  0.1571974682305106   T   T   T
  0.6646176510725056  0.0046866652589447  0.3130587335073389   T   T   T
  0.6666666806452426  0.3333333613114178  0.0000000000000000   F   F   F
  0.6656483853531001  0.3343160770872075  0.1580000745119434   T   T   T
  0.6608863032721726  0.3347318003456529  0.3280767634651501   T   T   T
  0.6666667030096960  0.6666667226228356  0.0000000000000000   F   F   F
  0.6663673291365358  0.6676880024957036  0.1572177561761592   T   T   T
  0.6605199212421490  0.6693795722809222  0.3096275294900901   T   T   T
  0.1111111284960415  0.2222222216206760  0.0798214519428555   F   F   F
  0.1093346222586785  0.2200824960675869  0.2360800519402041   T   T   T
  0.1111111350571008  0.5555556118124798  0.0798214519428555   F   F   F
  0.1131757238695586  0.5603388031910723  0.2358000627470290   T   T   T
  0.1111111554345570  0.8888889442433907  0.0798214519428555   F   F   F
  0.1070392898384728  0.8897109902497967  0.2343125992758501   T   T   T
  0.4444445023215593  0.2222222216206760  0.0798214519428555   F   F   F
  0.4465235207158393  0.2280104745334935  0.2357713756181584   T   T   T
  0.4444445016618417  0.5555556118124798  0.0798214519428555   F   F   F
  0.4398277448545655  0.5562424463279885  0.2344703508373491   T   T   T
  0.4444445131441270  0.8888889442433907  0.0798214519428555   F   F   F
  0.4427684280840838  0.8867730136175889  0.2357464250404834   T   T   T
  0.7777777941022634  0.2222222216206760  0.0798214519428555   F   F   F
  0.7744166685192244  0.2241834923766064  0.2348701645659403   T   T   T
  0.7777778058957736  0.5555556118124798  0.0798214519428555   F   F   F
  0.7760704893867779  0.5538531528288853  0.2357606317638489   T   T   T
  0.7777778387265144  0.8888889442433907  0.0798214519428555   F   F   F
  0.7796081457236909  0.8935740032654146  0.2355255407096968   T   T   T
  0.9697813447547652  0.9828368841114611  0.3962389042182441   T   T   T
  0.2529520636981643  0.9473214527607928  0.4133935243062522   T   T   T
  0.8923208732727526  0.2371200326671854  0.4122200965234139   T   T   T
  0.6534132786868848  0.3390635612991212  0.3939367186189711   T   T   T
  0.6175867489218295  0.6110296978944875  0.4133651186519858   T   T   T
  0.3208161948524166  0.6877561727860138  0.3966862630583663   T   T   T
  0.9515570607152981  0.0668207234574429  0.4087602676475705   T   T   T
  0.0608872638855598  0.9830335301877798  0.4105893120559440   T   T   T
  0.3536019059603964  0.0513741834491667  0.4157823565812424   T   T   T
  0.2334684514982209  0.9356248801899393  0.3830711504406427   T   T   T
  0.9966793825343259  0.3380772096888036  0.4114167024566526   T   T   T
  0.8645148354877574  0.2130366542306910  0.3824150142953259   T   T   T
  0.6546743675764340  0.4350754322764121  0.4060943991387942   T   T   T
  0.7333173220442044  0.3201644463421205  0.4082850826236545   T   T   T
  0.7193055745771793  0.7136692607045111  0.4099595212076612   T   T   T
  0.5686381799986457  0.5899902035403878  0.3854899913231215   T   T   T
  0.3043531004144948  0.7750671968051028  0.4078080475092895   T   T   T
  0.4061913102066816  0.6853436065094078  0.4127876535185709   T   T   T
 
  0.00000000E+00  0.00000000E+00  0.00000000E+00
  0.00000000E+00  0.00000000E+00  0.00000000E+00
  0.00000000E+00  0.00000000E+00  0.00000000E+00
  0.00000000E+00  0.00000000E+00  0.00000000E+00
  0.00000000E+00  0.00000000E+00  0.00000000E+00
  0.00000000E+00  0.00000000E+00  0.00000000E+00
  0.00000000E+00  0.00000000E+00  0.00000000E+00
  0.00000000E+00  0.00000000E+00  0.00000000E+00
  0.00000000E+00  0.00000000E+00  0.00000000E+00
  0.00000000E+00  0.00000000E+00  0.00000000E+00
  0.00000000E+00  0.00000000E+00  0.00000000E+00
  0.00000000E+00  0.00000000E+00  0.00000000E+00
  0.00000000E+00  0.00000000E+00  0.00000000E+00
  0.00000000E+00  0.00000000E+00  0.00000000E+00
  0.00000000E+00  0.00000000E+00  0.00000000E+00
  0.00000000E+00  0.00000000E+00  0.00000000E+00
  0.00000000E+00  0.00000000E+00  0.00000000E+00
  0.00000000E+00  0.00000000E+00  0.00000000E+00
  0.00000000E+00  0.00000000E+00  0.00000000E+00
  0.00000000E+00  0.00000000E+00  0.00000000E+00
  0.00000000E+00  0.00000000E+00  0.00000000E+00
  0.00000000E+00  0.00000000E+00  0.00000000E+00
  0.00000000E+00  0.00000000E+00  0.00000000E+00
  0.00000000E+00  0.00000000E+00  0.00000000E+00
  0.00000000E+00  0.00000000E+00  0.00000000E+00
  0.00000000E+00  0.00000000E+00  0.00000000E+00
  0.00000000E+00  0.00000000E+00  0.00000000E+00
  0.00000000E+00  0.00000000E+00  0.00000000E+00
  0.00000000E+00  0.00000000E+00  0.00000000E+00
  0.00000000E+00  0.00000000E+00  0.00000000E+00
  0.00000000E+00  0.00000000E+00  0.00000000E+00
  0.00000000E+00  0.00000000E+00  0.00000000E+00
  0.00000000E+00  0.00000000E+00  0.00000000E+00
  0.00000000E+00  0.00000000E+00  0.00000000E+00
  0.00000000E+00  0.00000000E+00  0.00000000E+00
  0.00000000E+00  0.00000000E+00  0.00000000E+00
  0.00000000E+00  0.00000000E+00  0.00000000E+00
  0.00000000E+00  0.00000000E+00  0.00000000E+00
  0.00000000E+00  0.00000000E+00  0.00000000E+00
  0.00000000E+00  0.00000000E+00  0.00000000E+00
  0.00000000E+00  0.00000000E+00  0.00000000E+00
  0.00000000E+00  0.00000000E+00  0.00000000E+00
  0.00000000E+00  0.00000000E+00  0.00000000E+00
  0.00000000E+00  0.00000000E+00  0.00000000E+00
  0.00000000E+00  0.00000000E+00  0.00000000E+00
  0.00000000E+00  0.00000000E+00  0.00000000E+00
  0.00000000E+00  0.00000000E+00  0.00000000E+00
  0.00000000E+00  0.00000000E+00  0.00000000E+00
  0.00000000E+00  0.00000000E+00  0.00000000E+00
  0.00000000E+00  0.00000000E+00  0.00000000E+00
  0.00000000E+00  0.00000000E+00  0.00000000E+00
  0.00000000E+00  0.00000000E+00  0.00000000E+00
  0.00000000E+00  0.00000000E+00  0.00000000E+00
  0.00000000E+00  0.00000000E+00  0.00000000E+00
  0.00000000E+00  0.00000000E+00  0.00000000E+00
  0.00000000E+00  0.00000000E+00  0.00000000E+00
  0.00000000E+00  0.00000000E+00  0.00000000E+00
  0.00000000E+00  0.00000000E+00  0.00000000E+00
  0.00000000E+00  0.00000000E+00  0.00000000E+00
  0.00000000E+00  0.00000000E+00  0.00000000E+00
  0.00000000E+00  0.00000000E+00  0.00000000E+00
  0.00000000E+00  0.00000000E+00  0.00000000E+00
  0.00000000E+00  0.00000000E+00  0.00000000E+00
