Mg   O    H                             
   1.00000000000000     
     9.5557527542000003    0.0000000000000000    0.0000000000000000
    -4.7778763771000001    8.2755246374000002    0.0000000000000000
     0.0000000000000000    0.0000000000000000   32.6250953674000002
   Mg   O    H 
    45     6    12
Selective dynamics
Direct
  0.0000000000000000  0.0000000000000000  0.0000000000000000   F   F   F
  0.9996160492061037  0.9998124843407297  0.1580814563204882   T   T   T
  0.0039834289654053  0.0044854103742722  0.3298112532904156   T   T   T
  0.0000000098065698  0.3333333613114178  0.0000000000000000   F   F   F
  0.0006610912975233  0.3327506330553831  0.1574534824804346   T   T   T
  0.9948870680678041  0.3319224841478601  0.3097626317075139   T   T   T
  0.0000000196131396  0.6666667226228356  0.0000000000000000   F   F   F
  0.9989659950296428  0.6649444195799532  0.1574760277006817   T   T   T
  0.0071609343780068  0.6706966602081437  0.3132197007443978   T   T   T
  0.3333333416982782  0.0000000000000000  0.0000000000000000   F   F   F
  0.3341062371409222  0.0001971293449117  0.1570988778449021   T   T   T
  0.3283522422784486  0.9971496099737251  0.3082957141453662   T   T   T
  0.3333333515048480  0.3333333613114178  0.0000000000000000   F   F   F
  0.3335131462754504  0.3331534741368714  0.1578939436124784   T   T   T
  0.3257416350176854  0.3368398605815557  0.3149390515424315   T   T   T
  0.3333333597416868  0.6666667226228356  0.0000000000000000   F   F   F
  0.3334713308933246  0.6664157376861581  0.1583591501863708   T   T   T
  0.3253673112415640  0.6593828298223627  0.3324226944096935   T   T   T
  0.6666666832919077  0.0000000000000000  0.0000000000000000   F   F   F
  0.6667278818060893  0.9982214033885839  0.1573142996338959   T   T   T
  0.6657490534280228  0.9962141984490529  0.3128171044254415   T   T   T
  0.6666666806452426  0.3333333613114178  0.0000000000000000   F   F   F
  0.6664238895438217  0.3335596368302376  0.1585722704686745   T   T   T
  0.6626671868062459  0.3158447176925421  0.3225791033342418   T   T   T
  0.6666667030096960  0.6666667226228356  0.0000000000000000   F   F   F
  0.6681477261870654  0.6662454487497271  0.1587637850319155   T   T   T
  0.6801693224576155  0.6731089852777643  0.3176623390626432   T   T   T
  0.1111111284960415  0.2222222216206760  0.0798214519428555   F   F   F
  0.1116218470585224  0.2183106387402987  0.2365133127740151   T   T   T
  0.1111111350571008  0.5555556118124798  0.0798214519428555   F   F   F
  0.1164873403311546  0.5578000182093916  0.2359122875231776   T   T   T
  0.1111111554345570  0.8888889442433907  0.0798214519428555   F   F   F
  0.1089063197451736  0.8862678884997450  0.2337040268160138   T   T   T
  0.4444445023215593  0.2222222216206760  0.0798214519428555   F   F   F
  0.4471037248438208  0.2263918752326219  0.2363772268425919   T   T   T
  0.4444445016618417  0.5555556118124798  0.0798214519428555   F   F   F
  0.4470912774657947  0.5586677171640915  0.2372370077458115   T   T   T
  0.4444445131441270  0.8888889442433907  0.0798214519428555   F   F   F
  0.4443667557038822  0.8850859993168427  0.2353397592820485   T   T   T
  0.7777777941022634  0.2222222216206760  0.0798214519428555   F   F   F
  0.7743146603003197  0.2188639643495804  0.2343868589450651   T   T   T
  0.7777778058957736  0.5555556118124798  0.0798214519428555   F   F   F
  0.7758138457157173  0.5498686656700471  0.2388849637873136   T   T   T
  0.7777778387265144  0.8888889442433907  0.0798214519428555   F   F   F
  0.7819270341551103  0.8877986510131137  0.2378495285195115   T   T   T
  0.9944255888332663  0.0117485837180453  0.3958821643659647   T   T   T
  0.2781766276623330  0.9716233615956540  0.4118597921395875   T   T   T
  0.8962158915631520  0.2495804737805329  0.4113854645824730   T   T   T
  0.6364799165091952  0.3253107633871295  0.3880609388019067   T   T   T
  0.6169961305745630  0.5933522195891356  0.3786916646888301   T   T   T
  0.3005076771942541  0.6927742623630380  0.3974025711456548   T   T   T
  0.9718468283280686  0.0932460560177333  0.4080541711130579   T   T   T
  0.0825214527656399  0.0111949880283930  0.4113555954202965   T   T   T
  0.3822512120416164  0.0732995984838709  0.4117737380082929   T   T   T
  0.2465709725039744  0.9574286771708884  0.3821914996517037   T   T   T
  0.9946512274655959  0.3552309152275228  0.4083263586562538   T   T   T
  0.8621830957776240  0.2172329343065940  0.3822238475969186   T   T   T
  0.6386465311085487  0.4303268281758932  0.3928153050545191   T   T   T
  0.7230679879167994  0.3237893582648113  0.4040589732383708   T   T   T
  0.6417652088836476  0.6820888596143320  0.3978498173755654   T   T   T
  0.4780987527824436  0.5458832130632061  0.3601511343089854   T   T   T
  0.3000088039112541  0.7917424870231358  0.4069057918519832   T   T   T
  0.3605963388475146  0.6679247330050018  0.4174782437772464   T   T   T
 
  0.00000000E+00  0.00000000E+00  0.00000000E+00
  0.00000000E+00  0.00000000E+00  0.00000000E+00
  0.00000000E+00  0.00000000E+00  0.00000000E+00
  0.00000000E+00  0.00000000E+00  0.00000000E+00
  0.00000000E+00  0.00000000E+00  0.00000000E+00
  0.00000000E+00  0.00000000E+00  0.00000000E+00
  0.00000000E+00  0.00000000E+00  0.00000000E+00
  0.00000000E+00  0.00000000E+00  0.00000000E+00
  0.00000000E+00  0.00000000E+00  0.00000000E+00
  0.00000000E+00  0.00000000E+00  0.00000000E+00
  0.00000000E+00  0.00000000E+00  0.00000000E+00
  0.00000000E+00  0.00000000E+00  0.00000000E+00
  0.00000000E+00  0.00000000E+00  0.00000000E+00
  0.00000000E+00  0.00000000E+00  0.00000000E+00
  0.00000000E+00  0.00000000E+00  0.00000000E+00
  0.00000000E+00  0.00000000E+00  0.00000000E+00
  0.00000000E+00  0.00000000E+00  0.00000000E+00
  0.00000000E+00  0.00000000E+00  0.00000000E+00
  0.00000000E+00  0.00000000E+00  0.00000000E+00
  0.00000000E+00  0.00000000E+00  0.00000000E+00
  0.00000000E+00  0.00000000E+00  0.00000000E+00
  0.00000000E+00  0.00000000E+00  0.00000000E+00
  0.00000000E+00  0.00000000E+00  0.00000000E+00
  0.00000000E+00  0.00000000E+00  0.00000000E+00
  0.00000000E+00  0.00000000E+00  0.00000000E+00
  0.00000000E+00  0.00000000E+00  0.00000000E+00
  0.00000000E+00  0.00000000E+00  0.00000000E+00
  0.00000000E+00  0.00000000E+00  0.00000000E+00
  0.00000000E+00  0.00000000E+00  0.00000000E+00
  0.00000000E+00  0.00000000E+00  0.00000000E+00
  0.00000000E+00  0.00000000E+00  0.00000000E+00
  0.00000000E+00  0.00000000E+00  0.00000000E+00
  0.00000000E+00  0.00000000E+00  0.00000000E+00
  0.00000000E+00  0.00000000E+00  0.00000000E+00
  0.00000000E+00  0.00000000E+00  0.00000000E+00
  0.00000000E+00  0.00000000E+00  0.00000000E+00
  0.00000000E+00  0.00000000E+00  0.00000000E+00
  0.00000000E+00  0.00000000E+00  0.00000000E+00
  0.00000000E+00  0.00000000E+00  0.00000000E+00
  0.00000000E+00  0.00000000E+00  0.00000000E+00
  0.00000000E+00  0.00000000E+00  0.00000000E+00
  0.00000000E+00  0.00000000E+00  0.00000000E+00
  0.00000000E+00  0.00000000E+00  0.00000000E+00
  0.00000000E+00  0.00000000E+00  0.00000000E+00
  0.00000000E+00  0.00000000E+00  0.00000000E+00
  0.00000000E+00  0.00000000E+00  0.00000000E+00
  0.00000000E+00  0.00000000E+00  0.00000000E+00
  0.00000000E+00  0.00000000E+00  0.00000000E+00
  0.00000000E+00  0.00000000E+00  0.00000000E+00
  0.00000000E+00  0.00000000E+00  0.00000000E+00
  0.00000000E+00  0.00000000E+00  0.00000000E+00
  0.00000000E+00  0.00000000E+00  0.00000000E+00
  0.00000000E+00  0.00000000E+00  0.00000000E+00
  0.00000000E+00  0.00000000E+00  0.00000000E+00
  0.00000000E+00  0.00000000E+00  0.00000000E+00
  0.00000000E+00  0.00000000E+00  0.00000000E+00
  0.00000000E+00  0.00000000E+00  0.00000000E+00
  0.00000000E+00  0.00000000E+00  0.00000000E+00
  0.00000000E+00  0.00000000E+00  0.00000000E+00
  0.00000000E+00  0.00000000E+00  0.00000000E+00
  0.00000000E+00  0.00000000E+00  0.00000000E+00
  0.00000000E+00  0.00000000E+00  0.00000000E+00
  0.00000000E+00  0.00000000E+00  0.00000000E+00
