Mg   O    H                             
   1.00000000000000     
     9.5557527542000003    0.0000000000000000    0.0000000000000000
    -4.7778763771000001    8.2755246374000002    0.0000000000000000
     0.0000000000000000    0.0000000000000000   32.6250953674000002
   Mg   O    H 
    45     6    12
Selective dynamics
Direct
  0.0000000000000000  0.0000000000000000  0.0000000000000000   F   F   F
  0.9996160492061039  0.9998124843407310  0.1580814563204853   T   T   T
  0.0039834289654064  0.0044854103742731  0.3298112532904182   T   T   T
  0.0000000098065698  0.3333333613114178  0.0000000000000000   F   F   F
  0.0006610912975231  0.3327506330553847  0.1574534824804344   T   T   T
  0.9948870680678062  0.3319224841478570  0.3097626317075137   T   T   T
  0.0000000196131396  0.6666667226228356  0.0000000000000000   F   F   F
  0.9989659950296451  0.6649444195799562  0.1574760277006826   T   T   T
  0.0071609343780076  0.6706966602081433  0.3132197007443944   T   T   T
  0.3333333416982782  0.0000000000000000  0.0000000000000000   F   F   F
  0.3341062371409256  1.0001971293449123  0.1570988778449000   T   T   T
  0.3283522422784478  0.9971496099737243  0.3082957141453693   T   T   T
  0.3333333515048480  0.3333333613114178  0.0000000000000000   F   F   F
  0.3335131462754514  0.3331534741368720  0.1578939436124795   T   T   T
  0.3257416350176859  0.3368398605815561  0.3149390515424326   T   T   T
  0.3333333597416868  0.6666667226228356  0.0000000000000000   F   F   F
  0.3334713308933230  0.6664157376861596  0.1583591501863723   T   T   T
  0.3253673112415619  0.6593828298223599  0.3324226944096968   T   T   T
  0.6666666832919077  0.0000000000000000  0.0000000000000000   F   F   F
  0.6667278818060886  0.9982214033885869  0.1573142996338988   T   T   T
  0.6657490534280258  0.9962141984490522  0.3128171044254392   T   T   T
  0.6666666806452426  0.3333333613114178  0.0000000000000000   F   F   F
  0.6664238895438223  0.3335596368302375  0.1585722704686740   T   T   T
  0.6626671868062455  0.3158447176925397  0.3225791033342449   T   T   T
  0.6666667030096960  0.6666667226228356  0.0000000000000000   F   F   F
  0.6681477261870631  0.6662454487497292  0.1587637850319140   T   T   T
  0.6801693224576143  0.6731089852777639  0.3176623390626411   T   T   T
  0.1111111284960415  0.2222222216206760  0.0798214519428555   F   F   F
  0.1116218470585252  0.2183106387402996  0.2365133127740181   T   T   T
  0.1111111350571008  0.5555556118124798  0.0798214519428555   F   F   F
  0.1164873403311579  0.5578000182093915  0.2359122875231744   T   T   T
  0.1111111554345570  0.8888889442433907  0.0798214519428555   F   F   F
  0.1089063197451770  0.8862678884997479  0.2337040268160172   T   T   T
  0.4444445023215593  0.2222222216206760  0.0798214519428555   F   F   F
  0.4471037248438197  0.2263918752326204  0.2363772268425916   T   T   T
  0.4444445016618417  0.5555556118124798  0.0798214519428555   F   F   F
  0.4470912774657944  0.5586677171640905  0.2372370077458140   T   T   T
  0.4444445131441270  0.8888889442433907  0.0798214519428555   F   F   F
  0.4443667557038792  0.8850859993168397  0.2353397592820452   T   T   T
  0.7777777941022634  0.2222222216206760  0.0798214519428555   F   F   F
  0.7743146603003213  0.2188639643495789  0.2343868589450620   T   T   T
  0.7777778058957736  0.5555556118124798  0.0798214519428555   F   F   F
  0.7758138457157198  0.5498686656700501  0.2388849637873152   T   T   T
  0.7777778387265144  0.8888889442433907  0.0798214519428555   F   F   F
  0.7819270341551130  0.8877986510131127  0.2378495285195083   T   T   T
  0.9944255888332665  0.0117485837180455  0.3958821643659628   T   T   T
  0.2781766276623294  0.9716233615956530  0.4118597921395841   T   T   T
  0.8962158915631521  0.2495804737805345  0.4113854645824762   T   T   T
  0.6364799165091940  0.3253107633871266  0.3880609388019102   T   T   T
  0.6169961305745615  0.5933522195891382  0.3786916646888282   T   T   T
  0.3005076771942515  0.6927742623630397  0.3974025711456534   T   T   T
  0.9718468283280670  0.0932460560177353  0.4080541711130549   T   T   T
  0.0825214527656365  0.0111949880283943  0.4113555954202975   T   T   T
  0.3822512120416187  0.0732995984838716  0.4117737380082894   T   T   T
  0.2465709725039776  0.9574286771708908  0.3821914996517013   T   T   T
  0.9946512274655979  0.3552309152275195  0.4083263586562567   T   T   T
  0.8621830957776250  0.2172329343065940  0.3822238475969161   T   T   T
  0.6386465311085461  0.4303268281758946  0.3928153050545218   T   T   T
  0.7230679879167995  0.3237893582648114  0.4040589732383719   T   T   T
  0.6417652088836494  0.6820888596143319  0.3978498173755651   T   T   T
  0.4780987527824407  0.5458832130632082  0.3601511343089849   T   T   T
  0.3000088039112568  0.7917424870231378  0.4069057918519864   T   T   T
  0.3605963388475162  0.6679247330050008  0.4174782437772457   T   T   T
 
  0.00000000E+00  0.00000000E+00  0.00000000E+00
  0.00000000E+00  0.00000000E+00  0.00000000E+00
  0.00000000E+00  0.00000000E+00  0.00000000E+00
  0.00000000E+00  0.00000000E+00  0.00000000E+00
  0.00000000E+00  0.00000000E+00  0.00000000E+00
  0.00000000E+00  0.00000000E+00  0.00000000E+00
  0.00000000E+00  0.00000000E+00  0.00000000E+00
  0.00000000E+00  0.00000000E+00  0.00000000E+00
  0.00000000E+00  0.00000000E+00  0.00000000E+00
  0.00000000E+00  0.00000000E+00  0.00000000E+00
  0.00000000E+00  0.00000000E+00  0.00000000E+00
  0.00000000E+00  0.00000000E+00  0.00000000E+00
  0.00000000E+00  0.00000000E+00  0.00000000E+00
  0.00000000E+00  0.00000000E+00  0.00000000E+00
  0.00000000E+00  0.00000000E+00  0.00000000E+00
  0.00000000E+00  0.00000000E+00  0.00000000E+00
  0.00000000E+00  0.00000000E+00  0.00000000E+00
  0.00000000E+00  0.00000000E+00  0.00000000E+00
  0.00000000E+00  0.00000000E+00  0.00000000E+00
  0.00000000E+00  0.00000000E+00  0.00000000E+00
  0.00000000E+00  0.00000000E+00  0.00000000E+00
  0.00000000E+00  0.00000000E+00  0.00000000E+00
  0.00000000E+00  0.00000000E+00  0.00000000E+00
  0.00000000E+00  0.00000000E+00  0.00000000E+00
  0.00000000E+00  0.00000000E+00  0.00000000E+00
  0.00000000E+00  0.00000000E+00  0.00000000E+00
  0.00000000E+00  0.00000000E+00  0.00000000E+00
  0.00000000E+00  0.00000000E+00  0.00000000E+00
  0.00000000E+00  0.00000000E+00  0.00000000E+00
  0.00000000E+00  0.00000000E+00  0.00000000E+00
  0.00000000E+00  0.00000000E+00  0.00000000E+00
  0.00000000E+00  0.00000000E+00  0.00000000E+00
  0.00000000E+00  0.00000000E+00  0.00000000E+00
  0.00000000E+00  0.00000000E+00  0.00000000E+00
  0.00000000E+00  0.00000000E+00  0.00000000E+00
  0.00000000E+00  0.00000000E+00  0.00000000E+00
  0.00000000E+00  0.00000000E+00  0.00000000E+00
  0.00000000E+00  0.00000000E+00  0.00000000E+00
  0.00000000E+00  0.00000000E+00  0.00000000E+00
  0.00000000E+00  0.00000000E+00  0.00000000E+00
  0.00000000E+00  0.00000000E+00  0.00000000E+00
  0.00000000E+00  0.00000000E+00  0.00000000E+00
  0.00000000E+00  0.00000000E+00  0.00000000E+00
  0.00000000E+00  0.00000000E+00  0.00000000E+00
  0.00000000E+00  0.00000000E+00  0.00000000E+00
  0.00000000E+00  0.00000000E+00  0.00000000E+00
  0.00000000E+00  0.00000000E+00  0.00000000E+00
  0.00000000E+00  0.00000000E+00  0.00000000E+00
  0.00000000E+00  0.00000000E+00  0.00000000E+00
  0.00000000E+00  0.00000000E+00  0.00000000E+00
  0.00000000E+00  0.00000000E+00  0.00000000E+00
  0.00000000E+00  0.00000000E+00  0.00000000E+00
  0.00000000E+00  0.00000000E+00  0.00000000E+00
  0.00000000E+00  0.00000000E+00  0.00000000E+00
  0.00000000E+00  0.00000000E+00  0.00000000E+00
  0.00000000E+00  0.00000000E+00  0.00000000E+00
  0.00000000E+00  0.00000000E+00  0.00000000E+00
  0.00000000E+00  0.00000000E+00  0.00000000E+00
  0.00000000E+00  0.00000000E+00  0.00000000E+00
  0.00000000E+00  0.00000000E+00  0.00000000E+00
  0.00000000E+00  0.00000000E+00  0.00000000E+00
  0.00000000E+00  0.00000000E+00  0.00000000E+00
  0.00000000E+00  0.00000000E+00  0.00000000E+00
