Mg   O    H                             
   1.00000000000000     
     9.5557527542000003    0.0000000000000000    0.0000000000000000
    -4.7778763771000001    8.2755246374000002    0.0000000000000000
     0.0000000000000000    0.0000000000000000   32.6250953674000002
   Mg   O    H 
    45     6    12
Selective dynamics
Direct
  0.0000000000000000  0.0000000000000000  0.0000000000000000   F   F   F
  0.9995248849197296  0.0013345778532425  0.1580738112527840   T   T   T
  0.9937115375491032  0.9986925798567867  0.3295596754076513   T   T   T
  0.0000000098065698  0.3333333613114178  0.0000000000000000   F   F   F
  0.0001595291047494  0.3346478202747676  0.1573879918946304   T   T   T
  0.9984634847996219  0.3368918162611507  0.3112569288245197   T   T   T
  0.0000000196131396  0.6666667226228356  0.0000000000000000   F   F   F
  0.9993817458897212  0.6672843971434617  0.1572739094642657   T   T   T
  0.0001505339362566  0.6710417401143616  0.3137010650207515   T   T   T
  0.3333333416982782  0.0000000000000000  0.0000000000000000   F   F   F
  0.3335405885082352  0.0013891185820327  0.1573632796719977   T   T   T
  0.3304207649995803  0.0037167888289815  0.3103391414266170   T   T   T
  0.3333333515048480  0.3333333613114178  0.0000000000000000   F   F   F
  0.3325255512895708  0.3337216551036235  0.1573009754089867   T   T   T
  0.3313272324708976  0.3381371972948983  0.3145187969177812   T   T   T
  0.3333333597416868  0.6666667226228356  0.0000000000000000   F   F   F
  0.3327919444877665  0.6680632957224759  0.1580514719858144   T   T   T
  0.3309119989028773  0.6696673945032785  0.3307603585533414   T   T   T
  0.6666666832919077  0.0000000000000000  0.0000000000000000   F   F   F
  0.6659510030597602  0.0007393623352314  0.1573042185919249   T   T   T
  0.6660922129369027  0.0055169819314074  0.3133715859636013   T   T   T
  0.6666666806452426  0.3333333613114178  0.0000000000000000   F   F   F
  0.6660405016911852  0.3344766830483508  0.1581034554089911   T   T   T
  0.6622094485007182  0.3354070099799884  0.3297466258246757   T   T   T
  0.6666667030096960  0.6666667226228356  0.0000000000000000   F   F   F
  0.6667062475959753  0.6679491546355933  0.1572808168583961   T   T   T
  0.6627321897245082  0.6687580164370530  0.3095838881320887   T   T   T
  0.1111111284960415  0.2222222216206760  0.0798214519428555   F   F   F
  0.1099682202399990  0.2204698627199448  0.2362439960998799   T   T   T
  0.1111111350571008  0.5555556118124798  0.0798214519428555   F   F   F
  0.1137592283019657  0.5601732493196891  0.2359665004930491   T   T   T
  0.1111111554345570  0.8888889442433907  0.0798214519428555   F   F   F
  0.1080306701100895  0.8901949473715831  0.2349099712298255   T   T   T
  0.4444445023215593  0.2222222216206760  0.0798214519428555   F   F   F
  0.4472746271729946  0.2278889025783428  0.2360923683797083   T   T   T
  0.4444445016618417  0.5555556118124798  0.0798214519428555   F   F   F
  0.4406408232223669  0.5563154955336103  0.2347794273736525   T   T   T
  0.4444445131441270  0.8888889442433907  0.0798214519428555   F   F   F
  0.4432903798618568  0.8871882583789628  0.2360429256468208   T   T   T
  0.7777777941022634  0.2222222216206760  0.0798214519428555   F   F   F
  0.7754118378483525  0.2244458318580129  0.2351115804414619   T   T   T
  0.7777778058957736  0.5555556118124798  0.0798214519428555   F   F   F
  0.7773124589065077  0.5541794599139322  0.2357822715518196   T   T   T
  0.7777778387265144  0.8888889442433907  0.0798214519428555   F   F   F
  0.7802149901278597  0.8938914538825671  0.2356654045536857   T   T   T
  0.9701015050006561  0.9778599712323484  0.3964967387662313   T   T   T
  0.2462698531745176  0.9293659967738108  0.4139379695214416   T   T   T
  0.8963513043804596  0.2343753183317006  0.4136861532701985   T   T   T
  0.6552158303362603  0.3368027117626582  0.3959360310718978   T   T   T
  0.6101911510489018  0.6118829483983248  0.4138391331183726   T   T   T
  0.3333351412103482  0.6802015146459439  0.3968195955376075   T   T   T
  0.9546446737923802  0.0626063570677786  0.4096179426634166   T   T   T
  0.0595352619618552  0.9736731380196417  0.4105517903301674   T   T   T
  0.3455775200145652  0.0351356657120050  0.4144480527986261   T   T   T
  0.2231523182136073  0.9084352132858413  0.3839136283218210   T   T   T
  0.0011047584699497  0.3348789592958923  0.4133838628089066   T   T   T
  0.8696039465210319  0.2125385473083341  0.3837992603148379   T   T   T
  0.6538659085464005  0.4299100536724723  0.4088272782603042   T   T   T
  0.7349036058681691  0.3174518497850940  0.4102359518008427   T   T   T
  0.7137155961375115  0.7134669487191871  0.4115916955696406   T   T   T
  0.5738288207828504  0.5862653840854790  0.3847529769180298   T   T   T
  0.3156756710149651  0.7639125010566801  0.4096142572716062   T   T   T
  0.4215981920176191  0.6764035569010858  0.4113543647552618   T   T   T
 
  0.00000000E+00  0.00000000E+00  0.00000000E+00
  0.00000000E+00  0.00000000E+00  0.00000000E+00
  0.00000000E+00  0.00000000E+00  0.00000000E+00
  0.00000000E+00  0.00000000E+00  0.00000000E+00
  0.00000000E+00  0.00000000E+00  0.00000000E+00
  0.00000000E+00  0.00000000E+00  0.00000000E+00
  0.00000000E+00  0.00000000E+00  0.00000000E+00
  0.00000000E+00  0.00000000E+00  0.00000000E+00
  0.00000000E+00  0.00000000E+00  0.00000000E+00
  0.00000000E+00  0.00000000E+00  0.00000000E+00
  0.00000000E+00  0.00000000E+00  0.00000000E+00
  0.00000000E+00  0.00000000E+00  0.00000000E+00
  0.00000000E+00  0.00000000E+00  0.00000000E+00
  0.00000000E+00  0.00000000E+00  0.00000000E+00
  0.00000000E+00  0.00000000E+00  0.00000000E+00
  0.00000000E+00  0.00000000E+00  0.00000000E+00
  0.00000000E+00  0.00000000E+00  0.00000000E+00
  0.00000000E+00  0.00000000E+00  0.00000000E+00
  0.00000000E+00  0.00000000E+00  0.00000000E+00
  0.00000000E+00  0.00000000E+00  0.00000000E+00
  0.00000000E+00  0.00000000E+00  0.00000000E+00
  0.00000000E+00  0.00000000E+00  0.00000000E+00
  0.00000000E+00  0.00000000E+00  0.00000000E+00
  0.00000000E+00  0.00000000E+00  0.00000000E+00
  0.00000000E+00  0.00000000E+00  0.00000000E+00
  0.00000000E+00  0.00000000E+00  0.00000000E+00
  0.00000000E+00  0.00000000E+00  0.00000000E+00
  0.00000000E+00  0.00000000E+00  0.00000000E+00
  0.00000000E+00  0.00000000E+00  0.00000000E+00
  0.00000000E+00  0.00000000E+00  0.00000000E+00
  0.00000000E+00  0.00000000E+00  0.00000000E+00
  0.00000000E+00  0.00000000E+00  0.00000000E+00
  0.00000000E+00  0.00000000E+00  0.00000000E+00
  0.00000000E+00  0.00000000E+00  0.00000000E+00
  0.00000000E+00  0.00000000E+00  0.00000000E+00
  0.00000000E+00  0.00000000E+00  0.00000000E+00
  0.00000000E+00  0.00000000E+00  0.00000000E+00
  0.00000000E+00  0.00000000E+00  0.00000000E+00
  0.00000000E+00  0.00000000E+00  0.00000000E+00
  0.00000000E+00  0.00000000E+00  0.00000000E+00
  0.00000000E+00  0.00000000E+00  0.00000000E+00
  0.00000000E+00  0.00000000E+00  0.00000000E+00
  0.00000000E+00  0.00000000E+00  0.00000000E+00
  0.00000000E+00  0.00000000E+00  0.00000000E+00
  0.00000000E+00  0.00000000E+00  0.00000000E+00
  0.00000000E+00  0.00000000E+00  0.00000000E+00
  0.00000000E+00  0.00000000E+00  0.00000000E+00
  0.00000000E+00  0.00000000E+00  0.00000000E+00
  0.00000000E+00  0.00000000E+00  0.00000000E+00
  0.00000000E+00  0.00000000E+00  0.00000000E+00
  0.00000000E+00  0.00000000E+00  0.00000000E+00
  0.00000000E+00  0.00000000E+00  0.00000000E+00
  0.00000000E+00  0.00000000E+00  0.00000000E+00
  0.00000000E+00  0.00000000E+00  0.00000000E+00
  0.00000000E+00  0.00000000E+00  0.00000000E+00
  0.00000000E+00  0.00000000E+00  0.00000000E+00
  0.00000000E+00  0.00000000E+00  0.00000000E+00
  0.00000000E+00  0.00000000E+00  0.00000000E+00
  0.00000000E+00  0.00000000E+00  0.00000000E+00
  0.00000000E+00  0.00000000E+00  0.00000000E+00
  0.00000000E+00  0.00000000E+00  0.00000000E+00
  0.00000000E+00  0.00000000E+00  0.00000000E+00
  0.00000000E+00  0.00000000E+00  0.00000000E+00
