Mg   O    H                             
   1.00000000000000     
     9.5557527542000003    0.0000000000000000    0.0000000000000000
    -4.7778763771000001    8.2755246374000002    0.0000000000000000
     0.0000000000000000    0.0000000000000000   32.6250953674000002
   Mg   O    H 
    45     6    12
Selective dynamics
Direct
  0.0000000000000000  0.0000000000000000  0.0000000000000000   F   F   F
  0.9995248849197327  0.0013345778532440  0.1580738112527805   T   T   T
  0.9937115375491066  0.9986925798567867  0.3295596754076543   T   T   T
  0.0000000098065698  0.3333333613114178  0.0000000000000000   F   F   F
  0.0001595291047493  0.3346478202747675  0.1573879918946269   T   T   T
  0.9984634847996199  0.3368918162611513  0.3112569288245164   T   T   T
  0.0000000196131396  0.6666667226228356  0.0000000000000000   F   F   F
  0.9993817458897215  0.6672843971434593  0.1572739094642646   T   T   T
  0.0001505339362532  0.6710417401143586  0.3137010650207513   T   T   T
  0.3333333416982782  0.0000000000000000  0.0000000000000000   F   F   F
  0.3335405885082346  0.0013891185820334  0.1573632796719957   T   T   T
  0.3304207649995771  0.0037167888289829  0.3103391414266144   T   T   T
  0.3333333515048480  0.3333333613114178  0.0000000000000000   F   F   F
  0.3325255512895677  0.3337216551036236  0.1573009754089890   T   T   T
  0.3313272324708960  0.3381371972948954  0.3145187969177804   T   T   T
  0.3333333597416868  0.6666667226228356  0.0000000000000000   F   F   F
  0.3327919444877648  0.6680632957224795  0.1580514719858109   T   T   T
  0.3309119989028760  0.6696673945032773  0.3307603585533394   T   T   T
  0.6666666832919077  0.0000000000000000  0.0000000000000000   F   F   F
  0.6659510030597631  0.0007393623352315  0.1573042185919215   T   T   T
  0.6660922129369062  0.0055169819314049  0.3133715859636019   T   T   T
  0.6666666806452426  0.3333333613114178  0.0000000000000000   F   F   F
  0.6660405016911825  0.3344766830483497  0.1581034554089885   T   T   T
  0.6622094485007188  0.3354070099799851  0.3297466258246788   T   T   T
  0.6666667030096960  0.6666667226228356  0.0000000000000000   F   F   F
  0.6667062475959749  0.6679491546355912  0.1572808168583930   T   T   T
  0.6627321897245053  0.6687580164370498  0.3095838881320883   T   T   T
  0.1111111284960415  0.2222222216206760  0.0798214519428555   F   F   F
  0.1099682202399991  0.2204698627199467  0.2362439960998797   T   T   T
  0.1111111350571008  0.5555556118124798  0.0798214519428555   F   F   F
  0.1137592283019647  0.5601732493196897  0.2359665004930526   T   T   T
  0.1111111554345570  0.8888889442433907  0.0798214519428555   F   F   F
  0.1080306701100863  0.8901949473715799  0.2349099712298285   T   T   T
  0.4444445023215593  0.2222222216206760  0.0798214519428555   F   F   F
  0.4472746271729947  0.2278889025783461  0.2360923683797093   T   T   T
  0.4444445016618417  0.5555556118124798  0.0798214519428555   F   F   F
  0.4406408232223691  0.5563154955336101  0.2347794273736496   T   T   T
  0.4444445131441270  0.8888889442433907  0.0798214519428555   F   F   F
  0.4432903798618561  0.8871882583789603  0.2360429256468236   T   T   T
  0.7777777941022634  0.2222222216206760  0.0798214519428555   F   F   F
  0.7754118378483497  0.2244458318580101  0.2351115804414617   T   T   T
  0.7777778058957736  0.5555556118124798  0.0798214519428555   F   F   F
  0.7773124589065081  0.5541794599139316  0.2357822715518178   T   T   T
  0.7777778387265144  0.8888889442433907  0.0798214519428555   F   F   F
  0.7802149901278583  0.8938914538825672  0.2356654045536839   T   T   T
  0.9701015050006591  0.9778599712323485  0.3964967387662325   T   T   T
  0.2462698531745173  0.9293659967738143  0.4139379695214444   T   T   T
  0.8963513043804617  0.2343753183317011  0.4136861532701962   T   T   T
  0.6552158303362602  0.3368027117626564  0.3959360310718973   T   T   T
  0.6101911510489020  0.6118829483983277  0.4138391331183705   T   T   T
  0.3333351412103459  0.6802015146459442  0.3968195955376074   T   T   T
  0.9546446737923787  0.0626063570677794  0.4096179426634162   T   T   T
  0.0595352619618540  0.9736731380196445  0.4105517903301673   T   T   T
  0.3455775200145659  0.0351356657120070  0.4144480527986281   T   T   T
  0.2231523182136097  0.9084352132858404  0.3839136283218227   T   T   T
  0.0011047584699502  0.3348789592958889  0.4133838628089058   T   T   T
  0.8696039465210351  0.2125385473083360  0.3837992603148391   T   T   T
  0.6538659085463974  0.4299100536724712  0.4088272782603012   T   T   T
  0.7349036058681709  0.3174518497850969  0.4102359518008419   T   T   T
  0.7137155961375146  0.7134669487191848  0.4115916955696398   T   T   T
  0.5738288207828494  0.5862653840854778  0.3847529769180313   T   T   T
  0.3156756710149619  0.7639125010566811  0.4096142572716032   T   T   T
  0.4215981920176168  0.6764035569010824  0.4113543647552622   T   T   T
 
  0.00000000E+00  0.00000000E+00  0.00000000E+00
  0.00000000E+00  0.00000000E+00  0.00000000E+00
  0.00000000E+00  0.00000000E+00  0.00000000E+00
  0.00000000E+00  0.00000000E+00  0.00000000E+00
  0.00000000E+00  0.00000000E+00  0.00000000E+00
  0.00000000E+00  0.00000000E+00  0.00000000E+00
  0.00000000E+00  0.00000000E+00  0.00000000E+00
  0.00000000E+00  0.00000000E+00  0.00000000E+00
  0.00000000E+00  0.00000000E+00  0.00000000E+00
  0.00000000E+00  0.00000000E+00  0.00000000E+00
  0.00000000E+00  0.00000000E+00  0.00000000E+00
  0.00000000E+00  0.00000000E+00  0.00000000E+00
  0.00000000E+00  0.00000000E+00  0.00000000E+00
  0.00000000E+00  0.00000000E+00  0.00000000E+00
  0.00000000E+00  0.00000000E+00  0.00000000E+00
  0.00000000E+00  0.00000000E+00  0.00000000E+00
  0.00000000E+00  0.00000000E+00  0.00000000E+00
  0.00000000E+00  0.00000000E+00  0.00000000E+00
  0.00000000E+00  0.00000000E+00  0.00000000E+00
  0.00000000E+00  0.00000000E+00  0.00000000E+00
  0.00000000E+00  0.00000000E+00  0.00000000E+00
  0.00000000E+00  0.00000000E+00  0.00000000E+00
  0.00000000E+00  0.00000000E+00  0.00000000E+00
  0.00000000E+00  0.00000000E+00  0.00000000E+00
  0.00000000E+00  0.00000000E+00  0.00000000E+00
  0.00000000E+00  0.00000000E+00  0.00000000E+00
  0.00000000E+00  0.00000000E+00  0.00000000E+00
  0.00000000E+00  0.00000000E+00  0.00000000E+00
  0.00000000E+00  0.00000000E+00  0.00000000E+00
  0.00000000E+00  0.00000000E+00  0.00000000E+00
  0.00000000E+00  0.00000000E+00  0.00000000E+00
  0.00000000E+00  0.00000000E+00  0.00000000E+00
  0.00000000E+00  0.00000000E+00  0.00000000E+00
  0.00000000E+00  0.00000000E+00  0.00000000E+00
  0.00000000E+00  0.00000000E+00  0.00000000E+00
  0.00000000E+00  0.00000000E+00  0.00000000E+00
  0.00000000E+00  0.00000000E+00  0.00000000E+00
  0.00000000E+00  0.00000000E+00  0.00000000E+00
  0.00000000E+00  0.00000000E+00  0.00000000E+00
  0.00000000E+00  0.00000000E+00  0.00000000E+00
  0.00000000E+00  0.00000000E+00  0.00000000E+00
  0.00000000E+00  0.00000000E+00  0.00000000E+00
  0.00000000E+00  0.00000000E+00  0.00000000E+00
  0.00000000E+00  0.00000000E+00  0.00000000E+00
  0.00000000E+00  0.00000000E+00  0.00000000E+00
  0.00000000E+00  0.00000000E+00  0.00000000E+00
  0.00000000E+00  0.00000000E+00  0.00000000E+00
  0.00000000E+00  0.00000000E+00  0.00000000E+00
  0.00000000E+00  0.00000000E+00  0.00000000E+00
  0.00000000E+00  0.00000000E+00  0.00000000E+00
  0.00000000E+00  0.00000000E+00  0.00000000E+00
  0.00000000E+00  0.00000000E+00  0.00000000E+00
  0.00000000E+00  0.00000000E+00  0.00000000E+00
  0.00000000E+00  0.00000000E+00  0.00000000E+00
  0.00000000E+00  0.00000000E+00  0.00000000E+00
  0.00000000E+00  0.00000000E+00  0.00000000E+00
  0.00000000E+00  0.00000000E+00  0.00000000E+00
  0.00000000E+00  0.00000000E+00  0.00000000E+00
  0.00000000E+00  0.00000000E+00  0.00000000E+00
  0.00000000E+00  0.00000000E+00  0.00000000E+00
  0.00000000E+00  0.00000000E+00  0.00000000E+00
  0.00000000E+00  0.00000000E+00  0.00000000E+00
  0.00000000E+00  0.00000000E+00  0.00000000E+00
