Mg   O    H                             
   1.00000000000000     
     9.5557527542000003    0.0000000000000000    0.0000000000000000
    -4.7778763771000001    8.2755246374000002    0.0000000000000000
     0.0000000000000000    0.0000000000000000   32.6250953674000002
   Mg   O    H 
    45     6    12
Selective dynamics
Direct
  0.0000000000000000  0.0000000000000000  0.0000000000000000   F   F   F
  0.9993663157199819  0.0017776185553657  0.1582921768920116   T   T   T
  0.0023150965277452  0.0140847924933212  0.3300525393844893   T   T   T
  0.0000000098065698  0.3333333613114178  0.0000000000000000   F   F   F
  0.0002178856025168  0.3359011651708101  0.1577747707006623   T   T   T
  0.9915788528358789  0.3417795651627955  0.3124941784021686   T   T   T
  0.0000000196131396  0.6666667226228356  0.0000000000000000   F   F   F
  0.0005702469924529  0.6696879775790450  0.1578431489352354   T   T   T
  0.9990016636698158  0.6779972548807791  0.3151627165274462   T   T   T
  0.3333333416982782  0.0000000000000000  0.0000000000000000   F   F   F
  0.3339053682007744  0.0017405505729968  0.1573365940789770   T   T   T
  0.3315386251351811  0.0128017401848410  0.3095977695059986   T   T   T
  0.3333333515048480  0.3333333613114178  0.0000000000000000   F   F   F
  0.3315206050359976  0.3332283990600899  0.1571311056743596   T   T   T
  0.3202089972961488  0.3342491590820487  0.3123952077777616   T   T   T
  0.3333333597416868  0.6666667226228356  0.0000000000000000   F   F   F
  0.3330150688057998  0.6702235622127120  0.1579153499176087   T   T   T
  0.3221006593466598  0.6819213215507602  0.3301718988782625   T   T   T
  0.6666666832919077  0.0000000000000000  0.0000000000000000   F   F   F
  0.6655826039066568  0.0004351977978558  0.1579083975132320   T   T   T
  0.6702057989341625  0.0133098648703083  0.3144148037645138   T   T   T
  0.6666666806452426  0.3333333613114178  0.0000000000000000   F   F   F
  0.6667166816923285  0.3362638340950070  0.1585485911420932   T   T   T
  0.6594234929552982  0.3338314587544318  0.3330791562781954   T   T   T
  0.6666667030096960  0.6666667226228356  0.0000000000000000   F   F   F
  0.6693649411378217  0.6695171772442450  0.1575857087537571   T   T   T
  0.6583987722143689  0.6816882560015287  0.3163781653053803   T   T   T
  0.1111111284960415  0.2222222216206760  0.0798214519428555   F   F   F
  0.1065996743495958  0.2235909944851713  0.2365560769846340   T   T   T
  0.1111111350571008  0.5555556118124798  0.0798214519428555   F   F   F
  0.1156568623706988  0.5620654333864081  0.2372146512150977   T   T   T
  0.1111111554345570  0.8888889442433907  0.0798214519428555   F   F   F
  0.1086381965060852  0.8939844450314567  0.2357913723497944   T   T   T
  0.4444445023215593  0.2222222216206760  0.0798214519428555   F   F   F
  0.4488213437599597  0.2337416663204763  0.2363482537953487   T   T   T
  0.4444445016618417  0.5555556118124798  0.0798214519428555   F   F   F
  0.4467167638693041  0.5597490444212241  0.2336419830165752   T   T   T
  0.4444445131441270  0.8888889442433907  0.0798214519428555   F   F   F
  0.4434829141157621  0.8874510876599402  0.2375041617276423   T   T   T
  0.7777777941022634  0.2222222216206760  0.0798214519428555   F   F   F
  0.7744090691247507  0.2262623047497812  0.2358072515891720   T   T   T
  0.7777778058957736  0.5555556118124798  0.0798214519428555   F   F   F
  0.7770888249167740  0.5577059378258653  0.2375889424739270   T   T   T
  0.7777778387265144  0.8888889442433907  0.0798214519428555   F   F   F
  0.7799355307487730  0.8912278296896901  0.2388094593109003   T   T   T
  0.0001043673281131  0.9996308535650869  0.3963873289787898   T   T   T
  0.2907381229001800  0.9636879669111096  0.4128738845136368   T   T   T
  0.8794925858479772  0.2227115564857698  0.4158853448365676   T   T   T
  0.6091670446973367  0.2713669020884879  0.4002549872250327   T   T   T
  0.7464159957869043  0.5702828944762715  0.3526441250031240   T   T   T
  0.3505310133516559  0.7076493590121800  0.3957209317245329   T   T   T
  0.9676934621999322  0.0696787864393897  0.4108592496449148   T   T   T
  0.0945773347675996  0.0061407947907455  0.4103726889849355   T   T   T
  0.3926080144469850  0.0679698202694183  0.4108202394988467   T   T   T
  0.2538356036278344  0.9391830975507744  0.3837325608235105   T   T   T
  0.9789081041285144  0.3278627030904246  0.4182084190514033   T   T   T
  0.8647594439989348  0.2076090236768167  0.3853107247783782   T   T   T
  0.6178481333782599  0.3730339852989459  0.4094207334535795   T   T   T
  0.6992397436685138  0.2634183416468261  0.4131853582612450   T   T   T
  0.7878286381072286  0.6205070738696605  0.3794418650592064   T   T   T
  0.4321572265594753  0.5559822114238031  0.3328933306126487   T   T   T
  0.3407177872446425  0.7990987479295981  0.4071177729213531   T   T   T
  0.4541501342562810  0.7222479283280663  0.4051633408011028   T   T   T
 
  0.00000000E+00  0.00000000E+00  0.00000000E+00
  0.00000000E+00  0.00000000E+00  0.00000000E+00
  0.00000000E+00  0.00000000E+00  0.00000000E+00
  0.00000000E+00  0.00000000E+00  0.00000000E+00
  0.00000000E+00  0.00000000E+00  0.00000000E+00
  0.00000000E+00  0.00000000E+00  0.00000000E+00
  0.00000000E+00  0.00000000E+00  0.00000000E+00
  0.00000000E+00  0.00000000E+00  0.00000000E+00
  0.00000000E+00  0.00000000E+00  0.00000000E+00
  0.00000000E+00  0.00000000E+00  0.00000000E+00
  0.00000000E+00  0.00000000E+00  0.00000000E+00
  0.00000000E+00  0.00000000E+00  0.00000000E+00
  0.00000000E+00  0.00000000E+00  0.00000000E+00
  0.00000000E+00  0.00000000E+00  0.00000000E+00
  0.00000000E+00  0.00000000E+00  0.00000000E+00
  0.00000000E+00  0.00000000E+00  0.00000000E+00
  0.00000000E+00  0.00000000E+00  0.00000000E+00
  0.00000000E+00  0.00000000E+00  0.00000000E+00
  0.00000000E+00  0.00000000E+00  0.00000000E+00
  0.00000000E+00  0.00000000E+00  0.00000000E+00
  0.00000000E+00  0.00000000E+00  0.00000000E+00
  0.00000000E+00  0.00000000E+00  0.00000000E+00
  0.00000000E+00  0.00000000E+00  0.00000000E+00
  0.00000000E+00  0.00000000E+00  0.00000000E+00
  0.00000000E+00  0.00000000E+00  0.00000000E+00
  0.00000000E+00  0.00000000E+00  0.00000000E+00
  0.00000000E+00  0.00000000E+00  0.00000000E+00
  0.00000000E+00  0.00000000E+00  0.00000000E+00
  0.00000000E+00  0.00000000E+00  0.00000000E+00
  0.00000000E+00  0.00000000E+00  0.00000000E+00
  0.00000000E+00  0.00000000E+00  0.00000000E+00
  0.00000000E+00  0.00000000E+00  0.00000000E+00
  0.00000000E+00  0.00000000E+00  0.00000000E+00
  0.00000000E+00  0.00000000E+00  0.00000000E+00
  0.00000000E+00  0.00000000E+00  0.00000000E+00
  0.00000000E+00  0.00000000E+00  0.00000000E+00
  0.00000000E+00  0.00000000E+00  0.00000000E+00
  0.00000000E+00  0.00000000E+00  0.00000000E+00
  0.00000000E+00  0.00000000E+00  0.00000000E+00
  0.00000000E+00  0.00000000E+00  0.00000000E+00
  0.00000000E+00  0.00000000E+00  0.00000000E+00
  0.00000000E+00  0.00000000E+00  0.00000000E+00
  0.00000000E+00  0.00000000E+00  0.00000000E+00
  0.00000000E+00  0.00000000E+00  0.00000000E+00
  0.00000000E+00  0.00000000E+00  0.00000000E+00
  0.00000000E+00  0.00000000E+00  0.00000000E+00
  0.00000000E+00  0.00000000E+00  0.00000000E+00
  0.00000000E+00  0.00000000E+00  0.00000000E+00
  0.00000000E+00  0.00000000E+00  0.00000000E+00
  0.00000000E+00  0.00000000E+00  0.00000000E+00
  0.00000000E+00  0.00000000E+00  0.00000000E+00
  0.00000000E+00  0.00000000E+00  0.00000000E+00
  0.00000000E+00  0.00000000E+00  0.00000000E+00
  0.00000000E+00  0.00000000E+00  0.00000000E+00
  0.00000000E+00  0.00000000E+00  0.00000000E+00
  0.00000000E+00  0.00000000E+00  0.00000000E+00
  0.00000000E+00  0.00000000E+00  0.00000000E+00
  0.00000000E+00  0.00000000E+00  0.00000000E+00
  0.00000000E+00  0.00000000E+00  0.00000000E+00
  0.00000000E+00  0.00000000E+00  0.00000000E+00
  0.00000000E+00  0.00000000E+00  0.00000000E+00
  0.00000000E+00  0.00000000E+00  0.00000000E+00
  0.00000000E+00  0.00000000E+00  0.00000000E+00
