Mg   O    H                             
   1.00000000000000     
     9.5557527542000003    0.0000000000000000    0.0000000000000000
    -4.7778763771000001    8.2755246374000002    0.0000000000000000
     0.0000000000000000    0.0000000000000000   32.6250953674000002
   Mg   O    H 
    45     6    12
Selective dynamics
Direct
  0.0000000000000000  0.0000000000000000  0.0000000000000000   F   F   F
  0.9993663157199822  0.0017776185553672  0.1582921768920105   T   T   T
  0.0023150965277444  0.0140847924933212  0.3300525393844898   T   T   T
  0.0000000098065698  0.3333333613114178  0.0000000000000000   F   F   F
  0.0002178856025153  0.3359011651708092  0.1577747707006630   T   T   T
  0.9915788528358781  0.3417795651627981  0.3124941784021701   T   T   T
  0.0000000196131396  0.6666667226228356  0.0000000000000000   F   F   F
  0.0005702469924509  0.6696879775790469  0.1578431489352348   T   T   T
  0.9990016636698147  0.6779972548807794  0.3151627165274485   T   T   T
  0.3333333416982782  0.0000000000000000  0.0000000000000000   F   F   F
  0.3339053682007747  0.0017405505729947  0.1573365940789776   T   T   T
  0.3315386251351800  0.0128017401848437  0.3095977695059974   T   T   T
  0.3333333515048480  0.3333333613114178  0.0000000000000000   F   F   F
  0.3315206050359989  0.3332283990600906  0.1571311056743618   T   T   T
  0.3202089972961509  0.3342491590820482  0.3123952077777590   T   T   T
  0.3333333597416868  0.6666667226228356  0.0000000000000000   F   F   F
  0.3330150688058018  0.6702235622127147  0.1579153499176089   T   T   T
  0.3221006593466611  0.6819213215507571  0.3301718988782598   T   T   T
  0.6666666832919077  0.0000000000000000  0.0000000000000000   F   F   F
  0.6655826039066604  0.0004351977978535  0.1579083975132304   T   T   T
  0.6702057989341651  0.0133098648703077  0.3144148037645112   T   T   T
  0.6666666806452426  0.3333333613114178  0.0000000000000000   F   F   F
  0.6667166816923252  0.3362638340950039  0.1585485911420904   T   T   T
  0.6594234929552988  0.3338314587544319  0.3330791562781932   T   T   T
  0.6666667030096960  0.6666667226228356  0.0000000000000000   F   F   F
  0.6693649411378232  0.6695171772442470  0.1575857087537549   T   T   T
  0.6583987722143654  0.6816882560015264  0.3163781653053829   T   T   T
  0.1111111284960415  0.2222222216206760  0.0798214519428555   F   F   F
  0.1065996743495927  0.2235909944851742  0.2365560769846336   T   T   T
  0.1111111350571008  0.5555556118124798  0.0798214519428555   F   F   F
  0.1156568623707013  0.5620654333864049  0.2372146512150957   T   T   T
  0.1111111554345570  0.8888889442433907  0.0798214519428555   F   F   F
  0.1086381965060850  0.8939844450314547  0.2357913723497945   T   T   T
  0.4444445023215593  0.2222222216206760  0.0798214519428555   F   F   F
  0.4488213437599594  0.2337416663204790  0.2363482537953505   T   T   T
  0.4444445016618417  0.5555556118124798  0.0798214519428555   F   F   F
  0.4467167638693014  0.5597490444212271  0.2336419830165777   T   T   T
  0.4444445131441270  0.8888889442433907  0.0798214519428555   F   F   F
  0.4434829141157650  0.8874510876599428  0.2375041617276436   T   T   T
  0.7777777941022634  0.2222222216206760  0.0798214519428555   F   F   F
  0.7744090691247517  0.2262623047497847  0.2358072515891739   T   T   T
  0.7777778058957736  0.5555556118124798  0.0798214519428555   F   F   F
  0.7770888249167737  0.5577059378258644  0.2375889424739274   T   T   T
  0.7777778387265144  0.8888889442433907  0.0798214519428555   F   F   F
  0.7799355307487760  0.8912278296896902  0.2388094593108968   T   T   T
  0.0001043673281144  0.9996308535650842  0.3963873289787906   T   T   T
  0.2907381229001784  0.9636879669111106  0.4128738845136378   T   T   T
  0.8794925858479784  0.2227115564857730  0.4158853448365680   T   T   T
  0.6091670446973362  0.2713669020884901  0.4002549872250356   T   T   T
  0.7464159957869022  0.5702828944762687  0.3526441250031262   T   T   T
  0.3505310133516595  0.7076493590121801  0.3957209317245309   T   T   T
  0.9676934621999334  0.0696787864393863  0.4108592496449119   T   T   T
  0.0945773347675971  0.0061407947907450  0.4103726889849341   T   T   T
  0.3926080144469834  0.0679698202694166  0.4108202394988468   T   T   T
  0.2538356036278356  0.9391830975507760  0.3837325608235114   T   T   T
  0.9789081041285134  0.3278627030904231  0.4182084190513998   T   T   T
  0.8647594439989371  0.2076090236768144  0.3853107247783754   T   T   T
  0.6178481333782627  0.3730339852989458  0.4094207334535784   T   T   T
  0.6992397436685169  0.2634183416468272  0.4131853582612477   T   T   T
  0.7878286381072288  0.6205070738696632  0.3794418650592070   T   T   T
  0.4321572265594721  0.5559822114238013  0.3328933306126465   T   T   T
  0.3407177872446451  0.7990987479295952  0.4071177729213566   T   T   T
  0.4541501342562843  0.7222479283280636  0.4051633408011017   T   T   T
 
  0.00000000E+00  0.00000000E+00  0.00000000E+00
  0.00000000E+00  0.00000000E+00  0.00000000E+00
  0.00000000E+00  0.00000000E+00  0.00000000E+00
  0.00000000E+00  0.00000000E+00  0.00000000E+00
  0.00000000E+00  0.00000000E+00  0.00000000E+00
  0.00000000E+00  0.00000000E+00  0.00000000E+00
  0.00000000E+00  0.00000000E+00  0.00000000E+00
  0.00000000E+00  0.00000000E+00  0.00000000E+00
  0.00000000E+00  0.00000000E+00  0.00000000E+00
  0.00000000E+00  0.00000000E+00  0.00000000E+00
  0.00000000E+00  0.00000000E+00  0.00000000E+00
  0.00000000E+00  0.00000000E+00  0.00000000E+00
  0.00000000E+00  0.00000000E+00  0.00000000E+00
  0.00000000E+00  0.00000000E+00  0.00000000E+00
  0.00000000E+00  0.00000000E+00  0.00000000E+00
  0.00000000E+00  0.00000000E+00  0.00000000E+00
  0.00000000E+00  0.00000000E+00  0.00000000E+00
  0.00000000E+00  0.00000000E+00  0.00000000E+00
  0.00000000E+00  0.00000000E+00  0.00000000E+00
  0.00000000E+00  0.00000000E+00  0.00000000E+00
  0.00000000E+00  0.00000000E+00  0.00000000E+00
  0.00000000E+00  0.00000000E+00  0.00000000E+00
  0.00000000E+00  0.00000000E+00  0.00000000E+00
  0.00000000E+00  0.00000000E+00  0.00000000E+00
  0.00000000E+00  0.00000000E+00  0.00000000E+00
  0.00000000E+00  0.00000000E+00  0.00000000E+00
  0.00000000E+00  0.00000000E+00  0.00000000E+00
  0.00000000E+00  0.00000000E+00  0.00000000E+00
  0.00000000E+00  0.00000000E+00  0.00000000E+00
  0.00000000E+00  0.00000000E+00  0.00000000E+00
  0.00000000E+00  0.00000000E+00  0.00000000E+00
  0.00000000E+00  0.00000000E+00  0.00000000E+00
  0.00000000E+00  0.00000000E+00  0.00000000E+00
  0.00000000E+00  0.00000000E+00  0.00000000E+00
  0.00000000E+00  0.00000000E+00  0.00000000E+00
  0.00000000E+00  0.00000000E+00  0.00000000E+00
  0.00000000E+00  0.00000000E+00  0.00000000E+00
  0.00000000E+00  0.00000000E+00  0.00000000E+00
  0.00000000E+00  0.00000000E+00  0.00000000E+00
  0.00000000E+00  0.00000000E+00  0.00000000E+00
  0.00000000E+00  0.00000000E+00  0.00000000E+00
  0.00000000E+00  0.00000000E+00  0.00000000E+00
  0.00000000E+00  0.00000000E+00  0.00000000E+00
  0.00000000E+00  0.00000000E+00  0.00000000E+00
  0.00000000E+00  0.00000000E+00  0.00000000E+00
  0.00000000E+00  0.00000000E+00  0.00000000E+00
  0.00000000E+00  0.00000000E+00  0.00000000E+00
  0.00000000E+00  0.00000000E+00  0.00000000E+00
  0.00000000E+00  0.00000000E+00  0.00000000E+00
  0.00000000E+00  0.00000000E+00  0.00000000E+00
  0.00000000E+00  0.00000000E+00  0.00000000E+00
  0.00000000E+00  0.00000000E+00  0.00000000E+00
  0.00000000E+00  0.00000000E+00  0.00000000E+00
  0.00000000E+00  0.00000000E+00  0.00000000E+00
  0.00000000E+00  0.00000000E+00  0.00000000E+00
  0.00000000E+00  0.00000000E+00  0.00000000E+00
  0.00000000E+00  0.00000000E+00  0.00000000E+00
  0.00000000E+00  0.00000000E+00  0.00000000E+00
  0.00000000E+00  0.00000000E+00  0.00000000E+00
  0.00000000E+00  0.00000000E+00  0.00000000E+00
  0.00000000E+00  0.00000000E+00  0.00000000E+00
  0.00000000E+00  0.00000000E+00  0.00000000E+00
  0.00000000E+00  0.00000000E+00  0.00000000E+00
