Mg   O    H                             
   1.00000000000000     
     9.5557527542000003    0.0000000000000000    0.0000000000000000
    -4.7778763771000001    8.2755246374000002    0.0000000000000000
     0.0000000000000000    0.0000000000000000   32.6250953674000002
   Mg   O    H 
    45     6    12
Selective dynamics
Direct
  0.0000000000000000  0.0000000000000000  0.0000000000000000   F   F   F
  0.9986198176970902  0.9983103283481256  0.1583670125018060   T   T   T
  0.0031248015357335  0.0011596701689953  0.3309809061505575   T   T   T
  0.0000000098065698  0.3333333613114178  0.0000000000000000   F   F   F
  0.9999668490492439  0.3333962862226301  0.1574655704021595   T   T   T
  0.9927939451968228  0.3315383890076902  0.3121485000985231   T   T   T
  0.0000000196131396  0.6666667226228356  0.0000000000000000   F   F   F
  0.9982249510087016  0.6655681329796721  0.1579883019799198   T   T   T
  0.0048536583058691  0.6705802124122542  0.3148903334622730   T   T   T
  0.3333333416982782  0.0000000000000000  0.0000000000000000   F   F   F
  0.3321314569633032  0.9983999532446646  0.1574234691370577   T   T   T
  0.3284752245856382  0.9961924500051040  0.3094394240254772   T   T   T
  0.3333333515048480  0.3333333613114178  0.0000000000000000   F   F   F
  0.3319022730673922  0.3310207926104169  0.1568982117497768   T   T   T
  0.3201536741330742  0.3211932789805232  0.3111666839423819   T   T   T
  0.3333333597416868  0.6666667226228356  0.0000000000000000   F   F   F
  0.3317907375207199  0.6660539506755043  0.1580377074392629   T   T   T
  0.3224285087630676  0.6701092772923474  0.3303677174577828   T   T   T
  0.6666666832919077  0.0000000000000000  0.0000000000000000   F   F   F
  0.6662225611973938  0.9978474006672897  0.1577425517773392   T   T   T
  0.6701069967034599  0.0039989077179001  0.3134107550637211   T   T   T
  0.6666666806452426  0.3333333613114178  0.0000000000000000   F   F   F
  0.6664505305365296  0.3343607775083370  0.1587949488558422   T   T   T
  0.6612090978331153  0.3167826081456369  0.3259477193197498   T   T   T
  0.6666667030096960  0.6666667226228356  0.0000000000000000   F   F   F
  0.6681094011784765  0.6661060016257778  0.1587365815430033   T   T   T
  0.6680417746621856  0.6679168799631938  0.3262958056158567   T   T   T
  0.1111111284960415  0.2222222216206760  0.0798214519428555   F   F   F
  0.1062429237570157  0.2182344807969869  0.2356990669801178   T   T   T
  0.1111111350571008  0.5555556118124798  0.0798214519428555   F   F   F
  0.1142619960609963  0.5567949909340015  0.2367690280160843   T   T   T
  0.1111111554345570  0.8888889442433907  0.0798214519428555   F   F   F
  0.1068765636674840  0.8866326086306486  0.2352803975043756   T   T   T
  0.4444445023215593  0.2222222216206760  0.0798214519428555   F   F   F
  0.4456576149174580  0.2237744357542155  0.2356829190817322   T   T   T
  0.4444445016618417  0.5555556118124798  0.0798214519428555   F   F   F
  0.4438880903778184  0.5541405199356575  0.2345919157314782   T   T   T
  0.4444445131441270  0.8888889442433907  0.0798214519428555   F   F   F
  0.4439915172528472  0.8824586436935107  0.2362377768079540   T   T   T
  0.7777777941022634  0.2222222216206760  0.0798214519428555   F   F   F
  0.7744280107008734  0.2200057465614336  0.2350858588328251   T   T   T
  0.7777778058957736  0.5555556118124798  0.0798214519428555   F   F   F
  0.7710156981106024  0.5493406231657900  0.2415665052053839   T   T   T
  0.7777778387265144  0.8888889442433907  0.0798214519428555   F   F   F
  0.7777923406794045  0.8829122443254818  0.2400916796598267   T   T   T
  0.0038602851908323  0.9974178080591258  0.3958697359906651   T   T   T
  0.2918284972703873  0.9840982961561267  0.4139181214314789   T   T   T
  0.8948588153097035  0.2135662617996417  0.4163649897446007   T   T   T
  0.6208808764914409  0.3400632095649030  0.3887044997210793   T   T   T
  0.6409524603039074  0.6211620955857597  0.3867524843236296   T   T   T
  0.3871045100307171  0.6862291467311650  0.3922438668040513   T   T   T
  0.9749550147263832  0.0727392508199216  0.4093929123639342   T   T   T
  0.1014614123149187  0.0061814820101418  0.4090276677429046   T   T   T
  0.3879532855917631  0.0894147574922144  0.4082807818742609   T   T   T
  0.2644365209804320  0.9303460181620480  0.3867437015078394   T   T   T
  0.9894328155100851  0.3223483921679744  0.4170365383396231   T   T   T
  0.8574808072148912  0.2014108103917280  0.3873955417970194   T   T   T
  0.6282066698009388  0.4527787018890521  0.3922078590263354   T   T   T
  0.6956223337937004  0.3332860777270739  0.4080213598158693   T   T   T
  0.7395889129161688  0.6955926087741489  0.4014871161168259   T   T   T
  0.4316940124775641  0.5475486933405520  0.3231941643317100   T   T   T
  0.3969015253776718  0.7763429048001171  0.4086556638156580   T   T   T
  0.4832771821241693  0.6716274733832535  0.3971347992994296   T   T   T
 
  0.00000000E+00  0.00000000E+00  0.00000000E+00
  0.00000000E+00  0.00000000E+00  0.00000000E+00
  0.00000000E+00  0.00000000E+00  0.00000000E+00
  0.00000000E+00  0.00000000E+00  0.00000000E+00
  0.00000000E+00  0.00000000E+00  0.00000000E+00
  0.00000000E+00  0.00000000E+00  0.00000000E+00
  0.00000000E+00  0.00000000E+00  0.00000000E+00
  0.00000000E+00  0.00000000E+00  0.00000000E+00
  0.00000000E+00  0.00000000E+00  0.00000000E+00
  0.00000000E+00  0.00000000E+00  0.00000000E+00
  0.00000000E+00  0.00000000E+00  0.00000000E+00
  0.00000000E+00  0.00000000E+00  0.00000000E+00
  0.00000000E+00  0.00000000E+00  0.00000000E+00
  0.00000000E+00  0.00000000E+00  0.00000000E+00
  0.00000000E+00  0.00000000E+00  0.00000000E+00
  0.00000000E+00  0.00000000E+00  0.00000000E+00
  0.00000000E+00  0.00000000E+00  0.00000000E+00
  0.00000000E+00  0.00000000E+00  0.00000000E+00
  0.00000000E+00  0.00000000E+00  0.00000000E+00
  0.00000000E+00  0.00000000E+00  0.00000000E+00
  0.00000000E+00  0.00000000E+00  0.00000000E+00
  0.00000000E+00  0.00000000E+00  0.00000000E+00
  0.00000000E+00  0.00000000E+00  0.00000000E+00
  0.00000000E+00  0.00000000E+00  0.00000000E+00
  0.00000000E+00  0.00000000E+00  0.00000000E+00
  0.00000000E+00  0.00000000E+00  0.00000000E+00
  0.00000000E+00  0.00000000E+00  0.00000000E+00
  0.00000000E+00  0.00000000E+00  0.00000000E+00
  0.00000000E+00  0.00000000E+00  0.00000000E+00
  0.00000000E+00  0.00000000E+00  0.00000000E+00
  0.00000000E+00  0.00000000E+00  0.00000000E+00
  0.00000000E+00  0.00000000E+00  0.00000000E+00
  0.00000000E+00  0.00000000E+00  0.00000000E+00
  0.00000000E+00  0.00000000E+00  0.00000000E+00
  0.00000000E+00  0.00000000E+00  0.00000000E+00
  0.00000000E+00  0.00000000E+00  0.00000000E+00
  0.00000000E+00  0.00000000E+00  0.00000000E+00
  0.00000000E+00  0.00000000E+00  0.00000000E+00
  0.00000000E+00  0.00000000E+00  0.00000000E+00
  0.00000000E+00  0.00000000E+00  0.00000000E+00
  0.00000000E+00  0.00000000E+00  0.00000000E+00
  0.00000000E+00  0.00000000E+00  0.00000000E+00
  0.00000000E+00  0.00000000E+00  0.00000000E+00
  0.00000000E+00  0.00000000E+00  0.00000000E+00
  0.00000000E+00  0.00000000E+00  0.00000000E+00
  0.00000000E+00  0.00000000E+00  0.00000000E+00
  0.00000000E+00  0.00000000E+00  0.00000000E+00
  0.00000000E+00  0.00000000E+00  0.00000000E+00
  0.00000000E+00  0.00000000E+00  0.00000000E+00
  0.00000000E+00  0.00000000E+00  0.00000000E+00
  0.00000000E+00  0.00000000E+00  0.00000000E+00
  0.00000000E+00  0.00000000E+00  0.00000000E+00
  0.00000000E+00  0.00000000E+00  0.00000000E+00
  0.00000000E+00  0.00000000E+00  0.00000000E+00
  0.00000000E+00  0.00000000E+00  0.00000000E+00
  0.00000000E+00  0.00000000E+00  0.00000000E+00
  0.00000000E+00  0.00000000E+00  0.00000000E+00
  0.00000000E+00  0.00000000E+00  0.00000000E+00
  0.00000000E+00  0.00000000E+00  0.00000000E+00
  0.00000000E+00  0.00000000E+00  0.00000000E+00
  0.00000000E+00  0.00000000E+00  0.00000000E+00
  0.00000000E+00  0.00000000E+00  0.00000000E+00
  0.00000000E+00  0.00000000E+00  0.00000000E+00
