Mg   O    H                             
   1.00000000000000     
     9.5557527542000003    0.0000000000000000    0.0000000000000000
    -4.7778763771000001    8.2755246374000002    0.0000000000000000
     0.0000000000000000    0.0000000000000000   32.6250953674000002
   Mg   O    H 
    45     6    12
Selective dynamics
Direct
  0.0000000000000000  0.0000000000000000  0.0000000000000000   F   F   F
  0.9986198176970923  0.9983103283481249  0.1583670125018073   T   T   T
  0.0031248015357304  0.0011596701689975  0.3309809061505584   T   T   T
  0.0000000098065698  0.3333333613114178  0.0000000000000000   F   F   F
  0.9999668490492456  0.3333962862226330  0.1574655704021577   T   T   T
  0.9927939451968240  0.3315383890076922  0.3121485000985219   T   T   T
  0.0000000196131396  0.6666667226228356  0.0000000000000000   F   F   F
  0.9982249510087021  0.6655681329796712  0.1579883019799219   T   T   T
  0.0048536583058704  0.6705802124122557  0.3148903334622757   T   T   T
  0.3333333416982782  0.0000000000000000  0.0000000000000000   F   F   F
  0.3321314569633060  0.9983999532446665  0.1574234691370545   T   T   T
  0.3284752245856410  0.9961924500051023  0.3094394240254737   T   T   T
  0.3333333515048480  0.3333333613114178  0.0000000000000000   F   F   F
  0.3319022730673888  0.3310207926104137  0.1568982117497746   T   T   T
  0.3201536741330732  0.3211932789805262  0.3111666839423844   T   T   T
  0.3333333597416868  0.6666667226228356  0.0000000000000000   F   F   F
  0.3317907375207184  0.6660539506755013  0.1580377074392613   T   T   T
  0.3224285087630662  0.6701092772923476  0.3303677174577855   T   T   T
  0.6666666832919077  0.0000000000000000  0.0000000000000000   F   F   F
  0.6662225611973904  0.9978474006672897  0.1577425517773416   T   T   T
  0.6701069967034623  0.0039989077179017  0.3134107550637188   T   T   T
  0.6666666806452426  0.3333333613114178  0.0000000000000000   F   F   F
  0.6664505305365294  0.3343607775083396  0.1587949488558403   T   T   T
  0.6612090978331143  0.3167826081456348  0.3259477193197486   T   T   T
  0.6666667030096960  0.6666667226228356  0.0000000000000000   F   F   F
  0.6681094011784732  0.6661060016257809  0.1587365815430067   T   T   T
  0.6680417746621887  0.6679168799631922  0.3262958056158592   T   T   T
  0.1111111284960415  0.2222222216206760  0.0798214519428555   F   F   F
  0.1062429237570130  0.2182344807969841  0.2356990669801153   T   T   T
  0.1111111350571008  0.5555556118124798  0.0798214519428555   F   F   F
  0.1142619960609981  0.5567949909340024  0.2367690280160863   T   T   T
  0.1111111554345570  0.8888889442433907  0.0798214519428555   F   F   F
  0.1068765636674825  0.8866326086306516  0.2352803975043730   T   T   T
  0.4444445023215593  0.2222222216206760  0.0798214519428555   F   F   F
  0.4456576149174593  0.2237744357542186  0.2356829190817302   T   T   T
  0.4444445016618417  0.5555556118124798  0.0798214519428555   F   F   F
  0.4438880903778182  0.5541405199356562  0.2345919157314758   T   T   T
  0.4444445131441270  0.8888889442433907  0.0798214519428555   F   F   F
  0.4439915172528440  0.8824586436935118  0.2362377768079539   T   T   T
  0.7777777941022634  0.2222222216206760  0.0798214519428555   F   F   F
  0.7744280107008725  0.2200057465614346  0.2350858588328257   T   T   T
  0.7777778058957736  0.5555556118124798  0.0798214519428555   F   F   F
  0.7710156981106044  0.5493406231657867  0.2415665052053825   T   T   T
  0.7777778387265144  0.8888889442433907  0.0798214519428555   F   F   F
  0.7777923406794023  0.8829122443254850  0.2400916796598251   T   T   T
  0.0038602851908320  0.9974178080591293  0.3958697359906617   T   T   T
  0.2918284972703900  0.9840982961561286  0.4139181214314796   T   T   T
  0.8948588153097012  0.2135662617996388  0.4163649897445976   T   T   T
  0.6208808764914442  0.3400632095649013  0.3887044997210828   T   T   T
  0.6409524603039082  0.6211620955857597  0.3867524843236267   T   T   T
  0.3871045100307177  0.6862291467311673  0.3922438668040500   T   T   T
  0.9749550147263798  0.0727392508199195  0.4093929123639315   T   T   T
  0.1014614123149215  0.0061814820101393  0.4090276677429058   T   T   T
  0.3879532855917633  0.0894147574922177  0.4082807818742589   T   T   T
  0.2644365209804315  0.9303460181620502  0.3867437015078428   T   T   T
  0.9894328155100879  0.3223483921679753  0.4170365383396216   T   T   T
  0.8574808072148880  0.2014108103917263  0.3873955417970170   T   T   T
  0.6282066698009359  0.4527787018890539  0.3922078590263343   T   T   T
  0.6956223337937001  0.3332860777270764  0.4080213598158706   T   T   T
  0.7395889129161656  0.6955926087741456  0.4014871161168285   T   T   T
  0.4316940124775648  0.5475486933405528  0.3231941643317128   T   T   T
  0.3969015253776751  0.7763429048001202  0.4086556638156595   T   T   T
  0.4832771821241706  0.6716274733832527  0.3971347992994298   T   T   T
 
  0.00000000E+00  0.00000000E+00  0.00000000E+00
  0.00000000E+00  0.00000000E+00  0.00000000E+00
  0.00000000E+00  0.00000000E+00  0.00000000E+00
  0.00000000E+00  0.00000000E+00  0.00000000E+00
  0.00000000E+00  0.00000000E+00  0.00000000E+00
  0.00000000E+00  0.00000000E+00  0.00000000E+00
  0.00000000E+00  0.00000000E+00  0.00000000E+00
  0.00000000E+00  0.00000000E+00  0.00000000E+00
  0.00000000E+00  0.00000000E+00  0.00000000E+00
  0.00000000E+00  0.00000000E+00  0.00000000E+00
  0.00000000E+00  0.00000000E+00  0.00000000E+00
  0.00000000E+00  0.00000000E+00  0.00000000E+00
  0.00000000E+00  0.00000000E+00  0.00000000E+00
  0.00000000E+00  0.00000000E+00  0.00000000E+00
  0.00000000E+00  0.00000000E+00  0.00000000E+00
  0.00000000E+00  0.00000000E+00  0.00000000E+00
  0.00000000E+00  0.00000000E+00  0.00000000E+00
  0.00000000E+00  0.00000000E+00  0.00000000E+00
  0.00000000E+00  0.00000000E+00  0.00000000E+00
  0.00000000E+00  0.00000000E+00  0.00000000E+00
  0.00000000E+00  0.00000000E+00  0.00000000E+00
  0.00000000E+00  0.00000000E+00  0.00000000E+00
  0.00000000E+00  0.00000000E+00  0.00000000E+00
  0.00000000E+00  0.00000000E+00  0.00000000E+00
  0.00000000E+00  0.00000000E+00  0.00000000E+00
  0.00000000E+00  0.00000000E+00  0.00000000E+00
  0.00000000E+00  0.00000000E+00  0.00000000E+00
  0.00000000E+00  0.00000000E+00  0.00000000E+00
  0.00000000E+00  0.00000000E+00  0.00000000E+00
  0.00000000E+00  0.00000000E+00  0.00000000E+00
  0.00000000E+00  0.00000000E+00  0.00000000E+00
  0.00000000E+00  0.00000000E+00  0.00000000E+00
  0.00000000E+00  0.00000000E+00  0.00000000E+00
  0.00000000E+00  0.00000000E+00  0.00000000E+00
  0.00000000E+00  0.00000000E+00  0.00000000E+00
  0.00000000E+00  0.00000000E+00  0.00000000E+00
  0.00000000E+00  0.00000000E+00  0.00000000E+00
  0.00000000E+00  0.00000000E+00  0.00000000E+00
  0.00000000E+00  0.00000000E+00  0.00000000E+00
  0.00000000E+00  0.00000000E+00  0.00000000E+00
  0.00000000E+00  0.00000000E+00  0.00000000E+00
  0.00000000E+00  0.00000000E+00  0.00000000E+00
  0.00000000E+00  0.00000000E+00  0.00000000E+00
  0.00000000E+00  0.00000000E+00  0.00000000E+00
  0.00000000E+00  0.00000000E+00  0.00000000E+00
  0.00000000E+00  0.00000000E+00  0.00000000E+00
  0.00000000E+00  0.00000000E+00  0.00000000E+00
  0.00000000E+00  0.00000000E+00  0.00000000E+00
  0.00000000E+00  0.00000000E+00  0.00000000E+00
  0.00000000E+00  0.00000000E+00  0.00000000E+00
  0.00000000E+00  0.00000000E+00  0.00000000E+00
  0.00000000E+00  0.00000000E+00  0.00000000E+00
  0.00000000E+00  0.00000000E+00  0.00000000E+00
  0.00000000E+00  0.00000000E+00  0.00000000E+00
  0.00000000E+00  0.00000000E+00  0.00000000E+00
  0.00000000E+00  0.00000000E+00  0.00000000E+00
  0.00000000E+00  0.00000000E+00  0.00000000E+00
  0.00000000E+00  0.00000000E+00  0.00000000E+00
  0.00000000E+00  0.00000000E+00  0.00000000E+00
  0.00000000E+00  0.00000000E+00  0.00000000E+00
  0.00000000E+00  0.00000000E+00  0.00000000E+00
  0.00000000E+00  0.00000000E+00  0.00000000E+00
  0.00000000E+00  0.00000000E+00  0.00000000E+00
