Mg   O    H                             
   1.00000000000000     
     9.5557527542000003    0.0000000000000000    0.0000000000000000
    -4.7778763771000001    8.2755246374000002    0.0000000000000000
     0.0000000000000000    0.0000000000000000   32.6250953674000002
   Mg   O    H 
    45     6    12
Selective dynamics
Direct
  0.0000000000000000  0.0000000000000000  0.0000000000000000   F   F   F
  0.9987990729845890  0.9995219431516844  0.1578932250272231   T   T   T
  0.9983997129624242  0.0004291470575595  0.3288473943086103   T   T   T
  0.0000000098065698  0.3333333613114178  0.0000000000000000   F   F   F
  0.9997269652771763  0.3326236080997873  0.1573758822490703   T   T   T
  0.9964959048267872  0.3319108242277835  0.3096745215536671   T   T   T
  0.0000000196131396  0.6666667226228356  0.0000000000000000   F   F   F
  0.9985299653349458  0.6644111959029004  0.1572173581020522   T   T   T
  0.0000671679286199  0.6688169263351753  0.3126087928303747   T   T   T
  0.3333333416982782  0.0000000000000000  0.0000000000000000   F   F   F
  0.3335853603092573  0.9995295550843935  0.1570580894402624   T   T   T
  0.3266322860783717  0.9973669355449957  0.3078582514717283   T   T   T
  0.3333333515048480  0.3333333613114178  0.0000000000000000   F   F   F
  0.3329525382180094  0.3331626240292920  0.1575109914214465   T   T   T
  0.3257760450554699  0.3330342292103978  0.3138640430177873   T   T   T
  0.3333333597416868  0.6666667226228356  0.0000000000000000   F   F   F
  0.3327764697401037  0.6656742270641018  0.1581226544763297   T   T   T
  0.3225720473875739  0.6644496921394563  0.3298565856500346   T   T   T
  0.6666666832919077  0.0000000000000000  0.0000000000000000   F   F   F
  0.6661315524106826  0.9984146329759724  0.1572367134658776   T   T   T
  0.6632626042056629  0.9945180281231245  0.3129650495429033   T   T   T
  0.6666666806452426  0.3333333613114178  0.0000000000000000   F   F   F
  0.6659724940391172  0.3328911214653445  0.1581281896748976   T   T   T
  0.6596181384046815  0.3188317023452498  0.3228316529648438   T   T   T
  0.6666667030096960  0.6666667226228356  0.0000000000000000   F   F   F
  0.6666538933622803  0.6657668637282299  0.1583189461301799   T   T   T
  0.6680366214724174  0.6648828880200597  0.3156313820493821   T   T   T
  0.1111111284960415  0.2222222216206760  0.0798214519428555   F   F   F
  0.1098640253510723  0.2172595163863065  0.2357383588963771   T   T   T
  0.1111111350571008  0.5555556118124798  0.0798214519428555   F   F   F
  0.1142650089521453  0.5578374947670213  0.2356706536874071   T   T   T
  0.1111111554345570  0.8888889442433907  0.0798214519428555   F   F   F
  0.1071863312373793  0.8861810137653947  0.2334142796124397   T   T   T
  0.4444445023215593  0.2222222216206760  0.0798214519428555   F   F   F
  0.4456496327244182  0.2248868734930198  0.2352841492223874   T   T   T
  0.4444445016618417  0.5555556118124798  0.0798214519428555   F   F   F
  0.4433979086794437  0.5568649712560969  0.2367464127665073   T   T   T
  0.4444445131441270  0.8888889442433907  0.0798214519428555   F   F   F
  0.4434432635658041  0.8847353765099513  0.2350648357771448   T   T   T
  0.7777777941022634  0.2222222216206760  0.0798214519428555   F   F   F
  0.7732874672814987  0.2191229148733953  0.2345953893846016   T   T   T
  0.7777778058957736  0.5555556118124798  0.0798214519428555   F   F   F
  0.7745544452879969  0.5498803615895440  0.2372266255044408   T   T   T
  0.7777778387265144  0.8888889442433907  0.0798214519428555   F   F   F
  0.7801850902680343  0.8877817356635589  0.2370433153911193   T   T   T
  0.9826491656941272  0.9986055929279800  0.3962067224543375   T   T   T
  0.2718582035003436  0.9699071053657704  0.4116021927692728   T   T   T
  0.8949999505536255  0.2472460890884989  0.4105290285464775   T   T   T
  0.6432672078422854  0.3216674993174422  0.3899051827935764   T   T   T
  0.6395772899610108  0.6142179265907473  0.3862443691618509   T   T   T
  0.2939480870146554  0.6902614023411786  0.3963827258656636   T   T   T
  0.9655285954962238  0.0845168316793732  0.4078216173565536   T   T   T
  0.0749340097506703  0.0016863787788282  0.4105846119272698   T   T   T
  0.3767296154522981  0.0705101904767886  0.4125925783539088   T   T   T
  0.2450568891695255  0.9588108132743827  0.3815975154773597   T   T   T
  0.9950952254675940  0.3520244307910119  0.4080581962437364   T   T   T
  0.8658751209314914  0.2145320549408467  0.3810616033123750   T   T   T
  0.6558813736245384  0.4273421876570751  0.3976514984963018   T   T   T
  0.7287314716312139  0.3100597120397168  0.4039312166230502   T   T   T
  0.6865718712677094  0.7203445964762452  0.3997656153212858   T   T   T
  0.5219612501254716  0.5741317912812391  0.3817796023611706   T   T   T
  0.2927082911037786  0.7890372197420774  0.4057416715319278   T   T   T
  0.3520624261662775  0.6658359370327602  0.4172226425349450   T   T   T
 
  0.00000000E+00  0.00000000E+00  0.00000000E+00
  0.00000000E+00  0.00000000E+00  0.00000000E+00
  0.00000000E+00  0.00000000E+00  0.00000000E+00
  0.00000000E+00  0.00000000E+00  0.00000000E+00
  0.00000000E+00  0.00000000E+00  0.00000000E+00
  0.00000000E+00  0.00000000E+00  0.00000000E+00
  0.00000000E+00  0.00000000E+00  0.00000000E+00
  0.00000000E+00  0.00000000E+00  0.00000000E+00
  0.00000000E+00  0.00000000E+00  0.00000000E+00
  0.00000000E+00  0.00000000E+00  0.00000000E+00
  0.00000000E+00  0.00000000E+00  0.00000000E+00
  0.00000000E+00  0.00000000E+00  0.00000000E+00
  0.00000000E+00  0.00000000E+00  0.00000000E+00
  0.00000000E+00  0.00000000E+00  0.00000000E+00
  0.00000000E+00  0.00000000E+00  0.00000000E+00
  0.00000000E+00  0.00000000E+00  0.00000000E+00
  0.00000000E+00  0.00000000E+00  0.00000000E+00
  0.00000000E+00  0.00000000E+00  0.00000000E+00
  0.00000000E+00  0.00000000E+00  0.00000000E+00
  0.00000000E+00  0.00000000E+00  0.00000000E+00
  0.00000000E+00  0.00000000E+00  0.00000000E+00
  0.00000000E+00  0.00000000E+00  0.00000000E+00
  0.00000000E+00  0.00000000E+00  0.00000000E+00
  0.00000000E+00  0.00000000E+00  0.00000000E+00
  0.00000000E+00  0.00000000E+00  0.00000000E+00
  0.00000000E+00  0.00000000E+00  0.00000000E+00
  0.00000000E+00  0.00000000E+00  0.00000000E+00
  0.00000000E+00  0.00000000E+00  0.00000000E+00
  0.00000000E+00  0.00000000E+00  0.00000000E+00
  0.00000000E+00  0.00000000E+00  0.00000000E+00
  0.00000000E+00  0.00000000E+00  0.00000000E+00
  0.00000000E+00  0.00000000E+00  0.00000000E+00
  0.00000000E+00  0.00000000E+00  0.00000000E+00
  0.00000000E+00  0.00000000E+00  0.00000000E+00
  0.00000000E+00  0.00000000E+00  0.00000000E+00
  0.00000000E+00  0.00000000E+00  0.00000000E+00
  0.00000000E+00  0.00000000E+00  0.00000000E+00
  0.00000000E+00  0.00000000E+00  0.00000000E+00
  0.00000000E+00  0.00000000E+00  0.00000000E+00
  0.00000000E+00  0.00000000E+00  0.00000000E+00
  0.00000000E+00  0.00000000E+00  0.00000000E+00
  0.00000000E+00  0.00000000E+00  0.00000000E+00
  0.00000000E+00  0.00000000E+00  0.00000000E+00
  0.00000000E+00  0.00000000E+00  0.00000000E+00
  0.00000000E+00  0.00000000E+00  0.00000000E+00
  0.00000000E+00  0.00000000E+00  0.00000000E+00
  0.00000000E+00  0.00000000E+00  0.00000000E+00
  0.00000000E+00  0.00000000E+00  0.00000000E+00
  0.00000000E+00  0.00000000E+00  0.00000000E+00
  0.00000000E+00  0.00000000E+00  0.00000000E+00
  0.00000000E+00  0.00000000E+00  0.00000000E+00
  0.00000000E+00  0.00000000E+00  0.00000000E+00
  0.00000000E+00  0.00000000E+00  0.00000000E+00
  0.00000000E+00  0.00000000E+00  0.00000000E+00
  0.00000000E+00  0.00000000E+00  0.00000000E+00
  0.00000000E+00  0.00000000E+00  0.00000000E+00
  0.00000000E+00  0.00000000E+00  0.00000000E+00
  0.00000000E+00  0.00000000E+00  0.00000000E+00
  0.00000000E+00  0.00000000E+00  0.00000000E+00
  0.00000000E+00  0.00000000E+00  0.00000000E+00
  0.00000000E+00  0.00000000E+00  0.00000000E+00
  0.00000000E+00  0.00000000E+00  0.00000000E+00
  0.00000000E+00  0.00000000E+00  0.00000000E+00
