Mg   O    H                             
   1.00000000000000     
     9.5557527542000003    0.0000000000000000    0.0000000000000000
    -4.7778763771000001    8.2755246374000002    0.0000000000000000
     0.0000000000000000    0.0000000000000000   32.6250953674000002
   Mg   O    H 
    45     6    12
Selective dynamics
Direct
  0.0000000000000000  0.0000000000000000  0.0000000000000000   F   F   F
  0.9987990729845893  0.9995219431516859  0.1578932250272211   T   T   T
  0.9983997129624252  0.0004291470575626  0.3288473943086085   T   T   T
  0.0000000098065698  0.3333333613114178  0.0000000000000000   F   F   F
  0.9997269652771751  0.3326236080997856  0.1573758822490698   T   T   T
  0.9964959048267905  0.3319108242277865  0.3096745215536649   T   T   T
  0.0000000196131396  0.6666667226228356  0.0000000000000000   F   F   F
  0.9985299653349424  0.6644111959029035  0.1572173581020544   T   T   T
  0.0000671679286191  0.6688169263351746  0.3126087928303733   T   T   T
  0.3333333416982782  0.0000000000000000  0.0000000000000000   F   F   F
  0.3335853603092559  0.9995295550843913  0.1570580894402628   T   T   T
  0.3266322860783732  0.9973669355449939  0.3078582514717283   T   T   T
  0.3333333515048480  0.3333333613114178  0.0000000000000000   F   F   F
  0.3329525382180073  0.3331626240292903  0.1575109914214486   T   T   T
  0.3257760450554705  0.3330342292104011  0.3138640430177883   T   T   T
  0.3333333597416868  0.6666667226228356  0.0000000000000000   F   F   F
  0.3327764697401039  0.6656742270641027  0.1581226544763267   T   T   T
  0.3225720473875769  0.6644496921394584  0.3298565856500358   T   T   T
  0.6666666832919077  0.0000000000000000  0.0000000000000000   F   F   F
  0.6661315524106851  0.9984146329759711  0.1572367134658798   T   T   T
  0.6632626042056652  0.9945180281231245  0.3129650495429006   T   T   T
  0.6666666806452426  0.3333333613114178  0.0000000000000000   F   F   F
  0.6659724940391190  0.3328911214653452  0.1581281896748953   T   T   T
  0.6596181384046793  0.3188317023452480  0.3228316529648437   T   T   T
  0.6666667030096960  0.6666667226228356  0.0000000000000000   F   F   F
  0.6666538933622810  0.6657668637282265  0.1583189461301782   T   T   T
  0.6680366214724199  0.6648828880200568  0.3156313820493823   T   T   T
  0.1111111284960415  0.2222222216206760  0.0798214519428555   F   F   F
  0.1098640253510739  0.2172595163863082  0.2357383588963789   T   T   T
  0.1111111350571008  0.5555556118124798  0.0798214519428555   F   F   F
  0.1142650089521455  0.5578374947670186  0.2356706536874084   T   T   T
  0.1111111554345570  0.8888889442433907  0.0798214519428555   F   F   F
  0.1071863312373765  0.8861810137653944  0.2334142796124369   T   T   T
  0.4444445023215593  0.2222222216206760  0.0798214519428555   F   F   F
  0.4456496327244198  0.2248868734930213  0.2352841492223846   T   T   T
  0.4444445016618417  0.5555556118124798  0.0798214519428555   F   F   F
  0.4433979086794466  0.5568649712560984  0.2367464127665082   T   T   T
  0.4444445131441270  0.8888889442433907  0.0798214519428555   F   F   F
  0.4434432635658062  0.8847353765099502  0.2350648357771432   T   T   T
  0.7777777941022634  0.2222222216206760  0.0798214519428555   F   F   F
  0.7732874672815004  0.2191229148733984  0.2345953893846041   T   T   T
  0.7777778058957736  0.5555556118124798  0.0798214519428555   F   F   F
  0.7745544452879985  0.5498803615895461  0.2372266255044384   T   T   T
  0.7777778387265144  0.8888889442433907  0.0798214519428555   F   F   F
  0.7801850902680371  0.8877817356635613  0.2370433153911194   T   T   T
  0.9826491656941284  0.9986055929279832  0.3962067224543372   T   T   T
  0.2718582035003423  0.9699071053657704  0.4116021927692742   T   T   T
  0.8949999505536267  0.2472460890884991  0.4105290285464788   T   T   T
  0.6432672078422883  0.3216674993174404  0.3899051827935787   T   T   T
  0.6395772899610129  0.6142179265907496  0.3862443691618508   T   T   T
  0.2939480870146577  0.6902614023411759  0.3963827258656665   T   T   T
  0.9655285954962254  0.0845168316793721  0.4078216173565543   T   T   T
  0.0749340097506677  0.0016863787788251  0.4105846119272707   T   T   T
  0.3767296154522958  0.0705101904767866  0.4125925783539098   T   T   T
  0.2450568891695235  0.9588108132743853  0.3815975154773629   T   T   T
  0.9950952254675929  0.3520244307910130  0.4080581962437361   T   T   T
  0.8658751209314910  0.2145320549408477  0.3810616033123786   T   T   T
  0.6558813736245419  0.4273421876570749  0.3976514984963008   T   T   T
  0.7287314716312147  0.3100597120397179  0.4039312166230480   T   T   T
  0.6865718712677068  0.7203445964762442  0.3997656153212884   T   T   T
  0.5219612501254707  0.5741317912812397  0.3817796023611736   T   T   T
  0.2927082911037752  0.7890372197420777  0.4057416715319288   T   T   T
  0.3520624261662792  0.6658359370327627  0.4172226425349463   T   T   T
 
  0.00000000E+00  0.00000000E+00  0.00000000E+00
  0.00000000E+00  0.00000000E+00  0.00000000E+00
  0.00000000E+00  0.00000000E+00  0.00000000E+00
  0.00000000E+00  0.00000000E+00  0.00000000E+00
  0.00000000E+00  0.00000000E+00  0.00000000E+00
  0.00000000E+00  0.00000000E+00  0.00000000E+00
  0.00000000E+00  0.00000000E+00  0.00000000E+00
  0.00000000E+00  0.00000000E+00  0.00000000E+00
  0.00000000E+00  0.00000000E+00  0.00000000E+00
  0.00000000E+00  0.00000000E+00  0.00000000E+00
  0.00000000E+00  0.00000000E+00  0.00000000E+00
  0.00000000E+00  0.00000000E+00  0.00000000E+00
  0.00000000E+00  0.00000000E+00  0.00000000E+00
  0.00000000E+00  0.00000000E+00  0.00000000E+00
  0.00000000E+00  0.00000000E+00  0.00000000E+00
  0.00000000E+00  0.00000000E+00  0.00000000E+00
  0.00000000E+00  0.00000000E+00  0.00000000E+00
  0.00000000E+00  0.00000000E+00  0.00000000E+00
  0.00000000E+00  0.00000000E+00  0.00000000E+00
  0.00000000E+00  0.00000000E+00  0.00000000E+00
  0.00000000E+00  0.00000000E+00  0.00000000E+00
  0.00000000E+00  0.00000000E+00  0.00000000E+00
  0.00000000E+00  0.00000000E+00  0.00000000E+00
  0.00000000E+00  0.00000000E+00  0.00000000E+00
  0.00000000E+00  0.00000000E+00  0.00000000E+00
  0.00000000E+00  0.00000000E+00  0.00000000E+00
  0.00000000E+00  0.00000000E+00  0.00000000E+00
  0.00000000E+00  0.00000000E+00  0.00000000E+00
  0.00000000E+00  0.00000000E+00  0.00000000E+00
  0.00000000E+00  0.00000000E+00  0.00000000E+00
  0.00000000E+00  0.00000000E+00  0.00000000E+00
  0.00000000E+00  0.00000000E+00  0.00000000E+00
  0.00000000E+00  0.00000000E+00  0.00000000E+00
  0.00000000E+00  0.00000000E+00  0.00000000E+00
  0.00000000E+00  0.00000000E+00  0.00000000E+00
  0.00000000E+00  0.00000000E+00  0.00000000E+00
  0.00000000E+00  0.00000000E+00  0.00000000E+00
  0.00000000E+00  0.00000000E+00  0.00000000E+00
  0.00000000E+00  0.00000000E+00  0.00000000E+00
  0.00000000E+00  0.00000000E+00  0.00000000E+00
  0.00000000E+00  0.00000000E+00  0.00000000E+00
  0.00000000E+00  0.00000000E+00  0.00000000E+00
  0.00000000E+00  0.00000000E+00  0.00000000E+00
  0.00000000E+00  0.00000000E+00  0.00000000E+00
  0.00000000E+00  0.00000000E+00  0.00000000E+00
  0.00000000E+00  0.00000000E+00  0.00000000E+00
  0.00000000E+00  0.00000000E+00  0.00000000E+00
  0.00000000E+00  0.00000000E+00  0.00000000E+00
  0.00000000E+00  0.00000000E+00  0.00000000E+00
  0.00000000E+00  0.00000000E+00  0.00000000E+00
  0.00000000E+00  0.00000000E+00  0.00000000E+00
  0.00000000E+00  0.00000000E+00  0.00000000E+00
  0.00000000E+00  0.00000000E+00  0.00000000E+00
  0.00000000E+00  0.00000000E+00  0.00000000E+00
  0.00000000E+00  0.00000000E+00  0.00000000E+00
  0.00000000E+00  0.00000000E+00  0.00000000E+00
  0.00000000E+00  0.00000000E+00  0.00000000E+00
  0.00000000E+00  0.00000000E+00  0.00000000E+00
  0.00000000E+00  0.00000000E+00  0.00000000E+00
  0.00000000E+00  0.00000000E+00  0.00000000E+00
  0.00000000E+00  0.00000000E+00  0.00000000E+00
  0.00000000E+00  0.00000000E+00  0.00000000E+00
  0.00000000E+00  0.00000000E+00  0.00000000E+00
