Mg   O    H                             
   1.00000000000000     
     9.5557527542000003    0.0000000000000000    0.0000000000000000
    -4.7778763771000001    8.2755246374000002    0.0000000000000000
     0.0000000000000000    0.0000000000000000   32.6250953674000002
   Mg   O    H 
    45     6    12
Selective dynamics
Direct
  0.0000000000000000  0.0000000000000000  0.0000000000000000   F   F   F
  0.9991662516275710  0.0016692516149064  0.1581801463177044   T   T   T
  0.0014288888869842  0.0091282191506536  0.3303643448646412   T   T   T
  0.0000000098065698  0.3333333613114178  0.0000000000000000   F   F   F
  0.0002787069582482  0.3353310090206705  0.1575535615651376   T   T   T
  0.9900544138165586  0.3432662297275328  0.3124152372225240   T   T   T
  0.0000000196131396  0.6666667226228356  0.0000000000000000   F   F   F
  0.0002660097914671  0.6692514994760614  0.1578355842765760   T   T   T
  0.0179049246518659  0.6869976550949559  0.3118097765969239   T   T   T
  0.3333333416982782  0.0000000000000000  0.0000000000000000   F   F   F
  0.3343744044353656  0.0017695672153621  0.1571950173727714   T   T   T
  0.3366063547567322  0.0169839805351728  0.3092693912061435   T   T   T
  0.3333333515048480  0.3333333613114178  0.0000000000000000   F   F   F
  0.3315866048614424  0.3330534461832997  0.1571058759835395   T   T   T
  0.3177600045859492  0.3324899088048454  0.3120913077044207   T   T   T
  0.3333333597416868  0.6666667226228356  0.0000000000000000   F   F   F
  0.3333639432819950  0.6699063122679050  0.1578432295582815   T   T   T
  0.3263322829371162  0.6842893740481131  0.3301511453844128   T   T   T
  0.6666666832919077  0.0000000000000000  0.0000000000000000   F   F   F
  0.6660206173259695  0.0000648001464114  0.1578208241557491   T   T   T
  0.6718713135954886  0.0143994167111856  0.3141274127674123   T   T   T
  0.6666666806452426  0.3333333613114178  0.0000000000000000   F   F   F
  0.6670986416442020  0.3366078343432690  0.1586225357873730   T   T   T
  0.6648586227824111  0.3438360344392564  0.3336796209266737   T   T   T
  0.6666667030096960  0.6666667226228356  0.0000000000000000   F   F   F
  0.6697573833708717  0.6691413213922957  0.1578846098941398   T   T   T
  0.6601855938220496  0.6779655008049161  0.3191049404519219   T   T   T
  0.1111111284960415  0.2222222216206760  0.0798214519428555   F   F   F
  0.1054777128242748  0.2224171294717365  0.2365418342381531   T   T   T
  0.1111111350571008  0.5555556118124798  0.0798214519428555   F   F   F
  0.1172249642686296  0.5602111066210753  0.2361604991428337   T   T   T
  0.1111111554345570  0.8888889442433907  0.0798214519428555   F   F   F
  0.1116198976421359  0.8963446039848222  0.2346674859817668   T   T   T
  0.4444445023215593  0.2222222216206760  0.0798214519428555   F   F   F
  0.4496052672459427  0.2342489464625075  0.2360876983277933   T   T   T
  0.4444445016618417  0.5555556118124798  0.0798214519428555   F   F   F
  0.4478184524621724  0.5595577944933581  0.2337714278277545   T   T   T
  0.4444445131441270  0.8888889442433907  0.0798214519428555   F   F   F
  0.4435665070269152  0.8870625570525092  0.2373005775174946   T   T   T
  0.7777777941022634  0.2222222216206760  0.0798214519428555   F   F   F
  0.7740121916365155  0.2247979727342013  0.2354373274262471   T   T   T
  0.7777778058957736  0.5555556118124798  0.0798214519428555   F   F   F
  0.7774189748350437  0.5569208028808603  0.2391573369609077   T   T   T
  0.7777778387265144  0.8888889442433907  0.0798214519428555   F   F   F
  0.7794838937533726  0.8893484171549275  0.2392670303987146   T   T   T
  0.0020320314401516  0.0013741536471343  0.3962277826304046   T   T   T
  0.2941734271382330  0.9653027877373006  0.4126201610354769   T   T   T
  0.8834063211994589  0.2209622193132645  0.4160099135835083   T   T   T
  0.6037697373221391  0.2696149256709717  0.4005222484110860   T   T   T
  0.6924003283664462  0.5511197832859054  0.3639353840813300   T   T   T
  0.3535655194263470  0.7087495657294554  0.3953144476669976   T   T   T
  0.9692953044939969  0.0715586520869635  0.4105973395912699   T   T   T
  0.0951565610421312  0.0063263246236929  0.4105236927938165   T   T   T
  0.3947121856783227  0.0712260044709296  0.4106534223264475   T   T   T
  0.2564076252968377  0.9404734780613495  0.3836484917335810   T   T   T
  0.9814151497235599  0.3271411469590930  0.4181879365943715   T   T   T
  0.8644276602896852  0.2076940075673406  0.3856284349668044   T   T   T
  0.6215708155865656  0.3810146179612417  0.4029327823770643   T   T   T
  0.6948266957092954  0.2669026968076338  0.4140379293746363   T   T   T
  0.7904177914349049  0.6246384038193540  0.3792006807917190   T   T   T
  0.4279088302078904  0.5548875869366654  0.3305248549143016   T   T   T
  0.3453460260041652  0.8006961882162500  0.4070158741745900   T   T   T
  0.4531254914131821  0.7167738535032555  0.4058041261660890   T   T   T
 
  0.00000000E+00  0.00000000E+00  0.00000000E+00
  0.00000000E+00  0.00000000E+00  0.00000000E+00
  0.00000000E+00  0.00000000E+00  0.00000000E+00
  0.00000000E+00  0.00000000E+00  0.00000000E+00
  0.00000000E+00  0.00000000E+00  0.00000000E+00
  0.00000000E+00  0.00000000E+00  0.00000000E+00
  0.00000000E+00  0.00000000E+00  0.00000000E+00
  0.00000000E+00  0.00000000E+00  0.00000000E+00
  0.00000000E+00  0.00000000E+00  0.00000000E+00
  0.00000000E+00  0.00000000E+00  0.00000000E+00
  0.00000000E+00  0.00000000E+00  0.00000000E+00
  0.00000000E+00  0.00000000E+00  0.00000000E+00
  0.00000000E+00  0.00000000E+00  0.00000000E+00
  0.00000000E+00  0.00000000E+00  0.00000000E+00
  0.00000000E+00  0.00000000E+00  0.00000000E+00
  0.00000000E+00  0.00000000E+00  0.00000000E+00
  0.00000000E+00  0.00000000E+00  0.00000000E+00
  0.00000000E+00  0.00000000E+00  0.00000000E+00
  0.00000000E+00  0.00000000E+00  0.00000000E+00
  0.00000000E+00  0.00000000E+00  0.00000000E+00
  0.00000000E+00  0.00000000E+00  0.00000000E+00
  0.00000000E+00  0.00000000E+00  0.00000000E+00
  0.00000000E+00  0.00000000E+00  0.00000000E+00
  0.00000000E+00  0.00000000E+00  0.00000000E+00
  0.00000000E+00  0.00000000E+00  0.00000000E+00
  0.00000000E+00  0.00000000E+00  0.00000000E+00
  0.00000000E+00  0.00000000E+00  0.00000000E+00
  0.00000000E+00  0.00000000E+00  0.00000000E+00
  0.00000000E+00  0.00000000E+00  0.00000000E+00
  0.00000000E+00  0.00000000E+00  0.00000000E+00
  0.00000000E+00  0.00000000E+00  0.00000000E+00
  0.00000000E+00  0.00000000E+00  0.00000000E+00
  0.00000000E+00  0.00000000E+00  0.00000000E+00
  0.00000000E+00  0.00000000E+00  0.00000000E+00
  0.00000000E+00  0.00000000E+00  0.00000000E+00
  0.00000000E+00  0.00000000E+00  0.00000000E+00
  0.00000000E+00  0.00000000E+00  0.00000000E+00
  0.00000000E+00  0.00000000E+00  0.00000000E+00
  0.00000000E+00  0.00000000E+00  0.00000000E+00
  0.00000000E+00  0.00000000E+00  0.00000000E+00
  0.00000000E+00  0.00000000E+00  0.00000000E+00
  0.00000000E+00  0.00000000E+00  0.00000000E+00
  0.00000000E+00  0.00000000E+00  0.00000000E+00
  0.00000000E+00  0.00000000E+00  0.00000000E+00
  0.00000000E+00  0.00000000E+00  0.00000000E+00
  0.00000000E+00  0.00000000E+00  0.00000000E+00
  0.00000000E+00  0.00000000E+00  0.00000000E+00
  0.00000000E+00  0.00000000E+00  0.00000000E+00
  0.00000000E+00  0.00000000E+00  0.00000000E+00
  0.00000000E+00  0.00000000E+00  0.00000000E+00
  0.00000000E+00  0.00000000E+00  0.00000000E+00
  0.00000000E+00  0.00000000E+00  0.00000000E+00
  0.00000000E+00  0.00000000E+00  0.00000000E+00
  0.00000000E+00  0.00000000E+00  0.00000000E+00
  0.00000000E+00  0.00000000E+00  0.00000000E+00
  0.00000000E+00  0.00000000E+00  0.00000000E+00
  0.00000000E+00  0.00000000E+00  0.00000000E+00
  0.00000000E+00  0.00000000E+00  0.00000000E+00
  0.00000000E+00  0.00000000E+00  0.00000000E+00
  0.00000000E+00  0.00000000E+00  0.00000000E+00
  0.00000000E+00  0.00000000E+00  0.00000000E+00
  0.00000000E+00  0.00000000E+00  0.00000000E+00
  0.00000000E+00  0.00000000E+00  0.00000000E+00
