Mg   O    H                             
   1.00000000000000     
     9.5557527542000003    0.0000000000000000    0.0000000000000000
    -4.7778763771000001    8.2755246374000002    0.0000000000000000
     0.0000000000000000    0.0000000000000000   32.6250953674000002
   Mg   O    H 
    45     6    12
Selective dynamics
Direct
  0.0000000000000000  0.0000000000000000  0.0000000000000000   F   F   F
  0.9991662516275679  0.0016692516149071  0.1581801463177043   T   T   T
  0.0014288888869860  0.0091282191506506  0.3303643448646403   T   T   T
  0.0000000098065698  0.3333333613114178  0.0000000000000000   F   F   F
  0.0002787069582496  0.3353310090206701  0.1575535615651373   T   T   T
  0.9900544138165597  0.3432662297275327  0.3124152372225235   T   T   T
  0.0000000196131396  0.6666667226228356  0.0000000000000000   F   F   F
  0.0002660097914695  0.6692514994760637  0.1578355842765739   T   T   T
  0.0179049246518654  0.6869976550949524  0.3118097765969267   T   T   T
  0.3333333416982782  0.0000000000000000  0.0000000000000000   F   F   F
  0.3343744044353673  0.0017695672153607  0.1571950173727699   T   T   T
  0.3366063547567331  0.0169839805351719  0.3092693912061431   T   T   T
  0.3333333515048480  0.3333333613114178  0.0000000000000000   F   F   F
  0.3315866048614409  0.3330534461833030  0.1571058759835393   T   T   T
  0.3177600045859525  0.3324899088048467  0.3120913077044206   T   T   T
  0.3333333597416868  0.6666667226228356  0.0000000000000000   F   F   F
  0.3333639432819931  0.6699063122679044  0.1578432295582815   T   T   T
  0.3263322829371182  0.6842893740481114  0.3301511453844096   T   T   T
  0.6666666832919077  0.0000000000000000  0.0000000000000000   F   F   F
  0.6660206173259714  1.0000648001464132  0.1578208241557461   T   T   T
  0.6718713135954899  0.0143994167111821  0.3141274127674122   T   T   T
  0.6666666806452426  0.3333333613114178  0.0000000000000000   F   F   F
  0.6670986416442037  0.3366078343432682  0.1586225357873759   T   T   T
  0.6648586227824128  0.3438360344392548  0.3336796209266766   T   T   T
  0.6666667030096960  0.6666667226228356  0.0000000000000000   F   F   F
  0.6697573833708723  0.6691413213922949  0.1578846098941409   T   T   T
  0.6601855938220474  0.6779655008049141  0.3191049404519191   T   T   T
  0.1111111284960415  0.2222222216206760  0.0798214519428555   F   F   F
  0.1054777128242754  0.2224171294717351  0.2365418342381554   T   T   T
  0.1111111350571008  0.5555556118124798  0.0798214519428555   F   F   F
  0.1172249642686265  0.5602111066210785  0.2361604991428329   T   T   T
  0.1111111554345570  0.8888889442433907  0.0798214519428555   F   F   F
  0.1116198976421347  0.8963446039848225  0.2346674859817689   T   T   T
  0.4444445023215593  0.2222222216206760  0.0798214519428555   F   F   F
  0.4496052672459414  0.2342489464625084  0.2360876983277931   T   T   T
  0.4444445016618417  0.5555556118124798  0.0798214519428555   F   F   F
  0.4478184524621691  0.5595577944933560  0.2337714278277555   T   T   T
  0.4444445131441270  0.8888889442433907  0.0798214519428555   F   F   F
  0.4435665070269184  0.8870625570525116  0.2373005775174922   T   T   T
  0.7777777941022634  0.2222222216206760  0.0798214519428555   F   F   F
  0.7740121916365121  0.2247979727342000  0.2354373274262457   T   T   T
  0.7777778058957736  0.5555556118124798  0.0798214519428555   F   F   F
  0.7774189748350455  0.5569208028808573  0.2391573369609099   T   T   T
  0.7777778387265144  0.8888889442433907  0.0798214519428555   F   F   F
  0.7794838937533709  0.8893484171549277  0.2392670303987148   T   T   T
  0.0020320314401533  0.0013741536471316  0.3962277826304080   T   T   T
  0.2941734271382313  0.9653027877372994  0.4126201610354773   T   T   T
  0.8834063211994555  0.2209622193132638  0.4160099135835053   T   T   T
  0.6037697373221392  0.2696149256709727  0.4005222484110836   T   T   T
  0.6924003283664460  0.5511197832859083  0.3639353840813303   T   T   T
  0.3535655194263470  0.7087495657294559  0.3953144476670006   T   T   T
  0.9692953044939946  0.0715586520869666  0.4105973395912726   T   T   T
  0.0951565610421315  0.0063263246236894  0.4105236927938182   T   T   T
  0.3947121856783219  0.0712260044709326  0.4106534223264452   T   T   T
  0.2564076252968364  0.9404734780613497  0.3836484917335782   T   T   T
  0.9814151497235566  0.3271411469590924  0.4181879365943745   T   T   T
  0.8644276602896871  0.2076940075673432  0.3856284349668074   T   T   T
  0.6215708155865631  0.3810146179612414  0.4029327823770639   T   T   T
  0.6948266957092986  0.2669026968076313  0.4140379293746395   T   T   T
  0.7904177914349081  0.6246384038193540  0.3792006807917192   T   T   T
  0.4279088302078916  0.5548875869366686  0.3305248549143041   T   T   T
  0.3453460260041636  0.8006961882162488  0.4070158741745927   T   T   T
  0.4531254914131791  0.7167738535032584  0.4058041261660886   T   T   T
 
  0.00000000E+00  0.00000000E+00  0.00000000E+00
  0.00000000E+00  0.00000000E+00  0.00000000E+00
  0.00000000E+00  0.00000000E+00  0.00000000E+00
  0.00000000E+00  0.00000000E+00  0.00000000E+00
  0.00000000E+00  0.00000000E+00  0.00000000E+00
  0.00000000E+00  0.00000000E+00  0.00000000E+00
  0.00000000E+00  0.00000000E+00  0.00000000E+00
  0.00000000E+00  0.00000000E+00  0.00000000E+00
  0.00000000E+00  0.00000000E+00  0.00000000E+00
  0.00000000E+00  0.00000000E+00  0.00000000E+00
  0.00000000E+00  0.00000000E+00  0.00000000E+00
  0.00000000E+00  0.00000000E+00  0.00000000E+00
  0.00000000E+00  0.00000000E+00  0.00000000E+00
  0.00000000E+00  0.00000000E+00  0.00000000E+00
  0.00000000E+00  0.00000000E+00  0.00000000E+00
  0.00000000E+00  0.00000000E+00  0.00000000E+00
  0.00000000E+00  0.00000000E+00  0.00000000E+00
  0.00000000E+00  0.00000000E+00  0.00000000E+00
  0.00000000E+00  0.00000000E+00  0.00000000E+00
  0.00000000E+00  0.00000000E+00  0.00000000E+00
  0.00000000E+00  0.00000000E+00  0.00000000E+00
  0.00000000E+00  0.00000000E+00  0.00000000E+00
  0.00000000E+00  0.00000000E+00  0.00000000E+00
  0.00000000E+00  0.00000000E+00  0.00000000E+00
  0.00000000E+00  0.00000000E+00  0.00000000E+00
  0.00000000E+00  0.00000000E+00  0.00000000E+00
  0.00000000E+00  0.00000000E+00  0.00000000E+00
  0.00000000E+00  0.00000000E+00  0.00000000E+00
  0.00000000E+00  0.00000000E+00  0.00000000E+00
  0.00000000E+00  0.00000000E+00  0.00000000E+00
  0.00000000E+00  0.00000000E+00  0.00000000E+00
  0.00000000E+00  0.00000000E+00  0.00000000E+00
  0.00000000E+00  0.00000000E+00  0.00000000E+00
  0.00000000E+00  0.00000000E+00  0.00000000E+00
  0.00000000E+00  0.00000000E+00  0.00000000E+00
  0.00000000E+00  0.00000000E+00  0.00000000E+00
  0.00000000E+00  0.00000000E+00  0.00000000E+00
  0.00000000E+00  0.00000000E+00  0.00000000E+00
  0.00000000E+00  0.00000000E+00  0.00000000E+00
  0.00000000E+00  0.00000000E+00  0.00000000E+00
  0.00000000E+00  0.00000000E+00  0.00000000E+00
  0.00000000E+00  0.00000000E+00  0.00000000E+00
  0.00000000E+00  0.00000000E+00  0.00000000E+00
  0.00000000E+00  0.00000000E+00  0.00000000E+00
  0.00000000E+00  0.00000000E+00  0.00000000E+00
  0.00000000E+00  0.00000000E+00  0.00000000E+00
  0.00000000E+00  0.00000000E+00  0.00000000E+00
  0.00000000E+00  0.00000000E+00  0.00000000E+00
  0.00000000E+00  0.00000000E+00  0.00000000E+00
  0.00000000E+00  0.00000000E+00  0.00000000E+00
  0.00000000E+00  0.00000000E+00  0.00000000E+00
  0.00000000E+00  0.00000000E+00  0.00000000E+00
  0.00000000E+00  0.00000000E+00  0.00000000E+00
  0.00000000E+00  0.00000000E+00  0.00000000E+00
  0.00000000E+00  0.00000000E+00  0.00000000E+00
  0.00000000E+00  0.00000000E+00  0.00000000E+00
  0.00000000E+00  0.00000000E+00  0.00000000E+00
  0.00000000E+00  0.00000000E+00  0.00000000E+00
  0.00000000E+00  0.00000000E+00  0.00000000E+00
  0.00000000E+00  0.00000000E+00  0.00000000E+00
  0.00000000E+00  0.00000000E+00  0.00000000E+00
  0.00000000E+00  0.00000000E+00  0.00000000E+00
  0.00000000E+00  0.00000000E+00  0.00000000E+00
