Mg   O    H                             
   1.00000000000000     
     9.5557527542000003    0.0000000000000000    0.0000000000000000
    -4.7778763771000001    8.2755246374000002    0.0000000000000000
     0.0000000000000000    0.0000000000000000   32.6250953674000002
   Mg   O    H 
    45     6    12
Selective dynamics
Direct
  0.0000000000000000  0.0000000000000000  0.0000000000000000   F   F   F
  0.9986951555525465  0.9978386070588101  0.1585169661349681   T   T   T
  0.0018434390138040  0.0000776044419410  0.3299219479013189   T   T   T
  0.0000000098065698  0.3333333613114178  0.0000000000000000   F   F   F
  0.9999362496937891  0.3332457739123882  0.1573706707543252   T   T   T
  0.9925285641471220  0.3303919427525912  0.3120963740867282   T   T   T
  0.0000000196131396  0.6666667226228356  0.0000000000000000   F   F   F
  0.9982815079944629  0.6656207155850922  0.1581361381441297   T   T   T
  0.0052019387419691  0.6685137243522519  0.3151366873124104   T   T   T
  0.3333333416982782  0.0000000000000000  0.0000000000000000   F   F   F
  0.3318412399603119  0.9981507517326662  0.1576188189600956   T   T   T
  0.3287328609521296  0.9930599952868775  0.3108044375950172   T   T   T
  0.3333333515048480  0.3333333613114178  0.0000000000000000   F   F   F
  0.3322691292325715  0.3309693087047307  0.1570270412679733   T   T   T
  0.3191466245176713  0.3184494201010395  0.3109983035928963   T   T   T
  0.3333333597416868  0.6666667226228356  0.0000000000000000   F   F   F
  0.3319427443369491  0.6655319122992935  0.1582041073125495   T   T   T
  0.3213755157475546  0.6664789096949093  0.3315109657704056   T   T   T
  0.6666666832919077  0.0000000000000000  0.0000000000000000   F   F   F
  0.6661536337352700  0.9976437583083566  0.1577263900690582   T   T   T
  0.6683290349588944  0.0043116388490461  0.3135458435204299   T   T   T
  0.6666666806452426  0.3333333613114178  0.0000000000000000   F   F   F
  0.6661511982398665  0.3340269237857783  0.1587698438747935   T   T   T
  0.6614229121480975  0.3181541247228736  0.3259068336353010   T   T   T
  0.6666667030096960  0.6666667226228356  0.0000000000000000   F   F   F
  0.6676298480191178  0.6657211335895141  0.1587906363923253   T   T   T
  0.6703708725541304  0.6688906543461499  0.3235790728571217   T   T   T
  0.1111111284960415  0.2222222216206760  0.0798214519428555   F   F   F
  0.1066173162053019  0.2185473280400529  0.2354313254122360   T   T   T
  0.1111111350571008  0.5555556118124798  0.0798214519428555   F   F   F
  0.1140906280625700  0.5564413187765140  0.2367364474732270   T   T   T
  0.1111111554345570  0.8888889442433907  0.0798214519428555   F   F   F
  0.1074591340611946  0.8869960055214108  0.2359751774970107   T   T   T
  0.4444445023215593  0.2222222216206760  0.0798214519428555   F   F   F
  0.4458517807995719  0.2223481226665456  0.2360611810005224   T   T   T
  0.4444445016618417  0.5555556118124798  0.0798214519428555   F   F   F
  0.4442779740629561  0.5539666657157980  0.2352334724642375   T   T   T
  0.4444445131441270  0.8888889442433907  0.0798214519428555   F   F   F
  0.4436014072373382  0.8824839660179151  0.2362843877031366   T   T   T
  0.7777777941022634  0.2222222216206760  0.0798214519428555   F   F   F
  0.7745731212948854  0.2200158353909885  0.2350070859365303   T   T   T
  0.7777778058957736  0.5555556118124798  0.0798214519428555   F   F   F
  0.7719454592023141  0.5493824251926256  0.2410881258811557   T   T   T
  0.7777778387265144  0.8888889442433907  0.0798214519428555   F   F   F
  0.7778162189570921  0.8839597843381171  0.2398972569940341   T   T   T
  0.9992453143604436  0.9954497590443268  0.3944663930942198   T   T   T
  0.2867016931980615  0.0081577719777499  0.4157148325035891   T   T   T
  0.8986982554173011  0.2161148350683888  0.4163068334589539   T   T   T
  0.6209450341722516  0.3482517010896515  0.3886257778831848   T   T   T
  0.6411846533028225  0.6283624554220921  0.3847463253210037   T   T   T
  0.3908075400880904  0.6663597820423774  0.3917605349280038   T   T   T
  0.9714537283454590  0.0720916394239026  0.4077318862102004   T   T   T
  0.1007309519649837  0.0091595204254205  0.4069490478732760   T   T   T
  0.3823264478856458  0.1124451996739566  0.4089947996111860   T   T   T
  0.2746805161490968  0.9397794193274365  0.3917320135303157   T   T   T
  0.9954845661721592  0.3234153510438986  0.4161819641570688   T   T   T
  0.8563987569224949  0.2043735455880054  0.3878754647370073   T   T   T
  0.6290313126245692  0.4610519121399648  0.3913656820795666   T   T   T
  0.6961230056421428  0.3440053578972737  0.4082612745436691   T   T   T
  0.7356903320042321  0.7087332854976864  0.3998702971720220   T   T   T
  0.4341121794293059  0.5491430509581718  0.3187908180210783   T   T   T
  0.4060182028083190  0.7530131379416218  0.4102517492990430   T   T   T
  0.4921268384800115  0.6535617241547413  0.3934627021236494   T   T   T
 
  0.00000000E+00  0.00000000E+00  0.00000000E+00
  0.00000000E+00  0.00000000E+00  0.00000000E+00
  0.00000000E+00  0.00000000E+00  0.00000000E+00
  0.00000000E+00  0.00000000E+00  0.00000000E+00
  0.00000000E+00  0.00000000E+00  0.00000000E+00
  0.00000000E+00  0.00000000E+00  0.00000000E+00
  0.00000000E+00  0.00000000E+00  0.00000000E+00
  0.00000000E+00  0.00000000E+00  0.00000000E+00
  0.00000000E+00  0.00000000E+00  0.00000000E+00
  0.00000000E+00  0.00000000E+00  0.00000000E+00
  0.00000000E+00  0.00000000E+00  0.00000000E+00
  0.00000000E+00  0.00000000E+00  0.00000000E+00
  0.00000000E+00  0.00000000E+00  0.00000000E+00
  0.00000000E+00  0.00000000E+00  0.00000000E+00
  0.00000000E+00  0.00000000E+00  0.00000000E+00
  0.00000000E+00  0.00000000E+00  0.00000000E+00
  0.00000000E+00  0.00000000E+00  0.00000000E+00
  0.00000000E+00  0.00000000E+00  0.00000000E+00
  0.00000000E+00  0.00000000E+00  0.00000000E+00
  0.00000000E+00  0.00000000E+00  0.00000000E+00
  0.00000000E+00  0.00000000E+00  0.00000000E+00
  0.00000000E+00  0.00000000E+00  0.00000000E+00
  0.00000000E+00  0.00000000E+00  0.00000000E+00
  0.00000000E+00  0.00000000E+00  0.00000000E+00
  0.00000000E+00  0.00000000E+00  0.00000000E+00
  0.00000000E+00  0.00000000E+00  0.00000000E+00
  0.00000000E+00  0.00000000E+00  0.00000000E+00
  0.00000000E+00  0.00000000E+00  0.00000000E+00
  0.00000000E+00  0.00000000E+00  0.00000000E+00
  0.00000000E+00  0.00000000E+00  0.00000000E+00
  0.00000000E+00  0.00000000E+00  0.00000000E+00
  0.00000000E+00  0.00000000E+00  0.00000000E+00
  0.00000000E+00  0.00000000E+00  0.00000000E+00
  0.00000000E+00  0.00000000E+00  0.00000000E+00
  0.00000000E+00  0.00000000E+00  0.00000000E+00
  0.00000000E+00  0.00000000E+00  0.00000000E+00
  0.00000000E+00  0.00000000E+00  0.00000000E+00
  0.00000000E+00  0.00000000E+00  0.00000000E+00
  0.00000000E+00  0.00000000E+00  0.00000000E+00
  0.00000000E+00  0.00000000E+00  0.00000000E+00
  0.00000000E+00  0.00000000E+00  0.00000000E+00
  0.00000000E+00  0.00000000E+00  0.00000000E+00
  0.00000000E+00  0.00000000E+00  0.00000000E+00
  0.00000000E+00  0.00000000E+00  0.00000000E+00
  0.00000000E+00  0.00000000E+00  0.00000000E+00
  0.00000000E+00  0.00000000E+00  0.00000000E+00
  0.00000000E+00  0.00000000E+00  0.00000000E+00
  0.00000000E+00  0.00000000E+00  0.00000000E+00
  0.00000000E+00  0.00000000E+00  0.00000000E+00
  0.00000000E+00  0.00000000E+00  0.00000000E+00
  0.00000000E+00  0.00000000E+00  0.00000000E+00
  0.00000000E+00  0.00000000E+00  0.00000000E+00
  0.00000000E+00  0.00000000E+00  0.00000000E+00
  0.00000000E+00  0.00000000E+00  0.00000000E+00
  0.00000000E+00  0.00000000E+00  0.00000000E+00
  0.00000000E+00  0.00000000E+00  0.00000000E+00
  0.00000000E+00  0.00000000E+00  0.00000000E+00
  0.00000000E+00  0.00000000E+00  0.00000000E+00
  0.00000000E+00  0.00000000E+00  0.00000000E+00
  0.00000000E+00  0.00000000E+00  0.00000000E+00
  0.00000000E+00  0.00000000E+00  0.00000000E+00
  0.00000000E+00  0.00000000E+00  0.00000000E+00
  0.00000000E+00  0.00000000E+00  0.00000000E+00
