Mg   O    H                             
   1.00000000000000     
     9.5557527542000003    0.0000000000000000    0.0000000000000000
    -4.7778763771000001    8.2755246374000002    0.0000000000000000
     0.0000000000000000    0.0000000000000000   32.6250953674000002
   Mg   O    H 
    45     6    12
Selective dynamics
Direct
  0.0000000000000000  0.0000000000000000  0.0000000000000000   F   F   F
  0.9986951555525468  0.9978386070588094  0.1585169661349670   T   T   T
  0.0018434390138014  0.0000776044419428  0.3299219479013181   T   T   T
  0.0000000098065698  0.3333333613114178  0.0000000000000000   F   F   F
  0.9999362496937857  0.3332457739123886  0.1573706707543279   T   T   T
  0.9925285641471220  0.3303919427525929  0.3120963740867315   T   T   T
  0.0000000196131396  0.6666667226228356  0.0000000000000000   F   F   F
  0.9982815079944618  0.6656207155850919  0.1581361381441274   T   T   T
  0.0052019387419697  0.6685137243522515  0.3151366873124136   T   T   T
  0.3333333416982782  0.0000000000000000  0.0000000000000000   F   F   F
  0.3318412399603108  0.9981507517326640  0.1576188189600983   T   T   T
  0.3287328609521291  0.9930599952868793  0.3108044375950171   T   T   T
  0.3333333515048480  0.3333333613114178  0.0000000000000000   F   F   F
  0.3322691292325706  0.3309693087047287  0.1570270412679767   T   T   T
  0.3191466245176692  0.3184494201010428  0.3109983035928928   T   T   T
  0.3333333597416868  0.6666667226228356  0.0000000000000000   F   F   F
  0.3319427443369487  0.6655319122992944  0.1582041073125496   T   T   T
  0.3213755157475544  0.6664789096949068  0.3315109657704038   T   T   T
  0.6666666832919077  0.0000000000000000  0.0000000000000000   F   F   F
  0.6661536337352696  0.9976437583083544  0.1577263900690603   T   T   T
  0.6683290349588914  0.0043116388490458  0.3135458435204275   T   T   T
  0.6666666806452426  0.3333333613114178  0.0000000000000000   F   F   F
  0.6661511982398631  0.3340269237857764  0.1587698438747919   T   T   T
  0.6614229121480997  0.3181541247228749  0.3259068336352987   T   T   T
  0.6666667030096960  0.6666667226228356  0.0000000000000000   F   F   F
  0.6676298480191143  0.6657211335895168  0.1587906363923259   T   T   T
  0.6703708725541275  0.6688906543461527  0.3235790728571209   T   T   T
  0.1111111284960415  0.2222222216206760  0.0798214519428555   F   F   F
  0.1066173162053032  0.2185473280400560  0.2354313254122371   T   T   T
  0.1111111350571008  0.5555556118124798  0.0798214519428555   F   F   F
  0.1140906280625666  0.5564413187765137  0.2367364474732287   T   T   T
  0.1111111554345570  0.8888889442433907  0.0798214519428555   F   F   F
  0.1074591340611922  0.8869960055214110  0.2359751774970122   T   T   T
  0.4444445023215593  0.2222222216206760  0.0798214519428555   F   F   F
  0.4458517807995739  0.2223481226665428  0.2360611810005203   T   T   T
  0.4444445016618417  0.5555556118124798  0.0798214519428555   F   F   F
  0.4442779740629570  0.5539666657157960  0.2352334724642367   T   T   T
  0.4444445131441270  0.8888889442433907  0.0798214519428555   F   F   F
  0.4436014072373349  0.8824839660179181  0.2362843877031347   T   T   T
  0.7777777941022634  0.2222222216206760  0.0798214519428555   F   F   F
  0.7745731212948823  0.2200158353909853  0.2350070859365316   T   T   T
  0.7777778058957736  0.5555556118124798  0.0798214519428555   F   F   F
  0.7719454592023159  0.5493824251926284  0.2410881258811528   T   T   T
  0.7777778387265144  0.8888889442433907  0.0798214519428555   F   F   F
  0.7778162189570902  0.8839597843381199  0.2398972569940310   T   T   T
  0.9992453143604463  0.9954497590443301  0.3944663930942174   T   T   T
  0.2867016931980614  0.0081577719777500  0.4157148325035911   T   T   T
  0.8986982554173025  0.2161148350683878  0.4163068334589516   T   T   T
  0.6209450341722538  0.3482517010896534  0.3886257778831846   T   T   T
  0.6411846533028253  0.6283624554220939  0.3847463253210035   T   T   T
  0.3908075400880898  0.6663597820423784  0.3917605349280045   T   T   T
  0.9714537283454601  0.0720916394239060  0.4077318862101989   T   T   T
  0.1007309519649846  0.0091595204254202  0.4069490478732790   T   T   T
  0.3823264478856465  0.1124451996739600  0.4089947996111852   T   T   T
  0.2746805161490984  0.9397794193274357  0.3917320135303185   T   T   T
  0.9954845661721616  0.3234153510438963  0.4161819641570722   T   T   T
  0.8563987569224960  0.2043735455880070  0.3878754647370087   T   T   T
  0.6290313126245675  0.4610519121399617  0.3913656820795695   T   T   T
  0.6961230056421421  0.3440053578972764  0.4082612745436704   T   T   T
  0.7356903320042296  0.7087332854976879  0.3998702971720214   T   T   T
  0.4341121794293087  0.5491430509581697  0.3187908180210777   T   T   T
  0.4060182028083205  0.7530131379416207  0.4102517492990417   T   T   T
  0.4921268384800147  0.6535617241547429  0.3934627021236460   T   T   T
 
  0.00000000E+00  0.00000000E+00  0.00000000E+00
  0.00000000E+00  0.00000000E+00  0.00000000E+00
  0.00000000E+00  0.00000000E+00  0.00000000E+00
  0.00000000E+00  0.00000000E+00  0.00000000E+00
  0.00000000E+00  0.00000000E+00  0.00000000E+00
  0.00000000E+00  0.00000000E+00  0.00000000E+00
  0.00000000E+00  0.00000000E+00  0.00000000E+00
  0.00000000E+00  0.00000000E+00  0.00000000E+00
  0.00000000E+00  0.00000000E+00  0.00000000E+00
  0.00000000E+00  0.00000000E+00  0.00000000E+00
  0.00000000E+00  0.00000000E+00  0.00000000E+00
  0.00000000E+00  0.00000000E+00  0.00000000E+00
  0.00000000E+00  0.00000000E+00  0.00000000E+00
  0.00000000E+00  0.00000000E+00  0.00000000E+00
  0.00000000E+00  0.00000000E+00  0.00000000E+00
  0.00000000E+00  0.00000000E+00  0.00000000E+00
  0.00000000E+00  0.00000000E+00  0.00000000E+00
  0.00000000E+00  0.00000000E+00  0.00000000E+00
  0.00000000E+00  0.00000000E+00  0.00000000E+00
  0.00000000E+00  0.00000000E+00  0.00000000E+00
  0.00000000E+00  0.00000000E+00  0.00000000E+00
  0.00000000E+00  0.00000000E+00  0.00000000E+00
  0.00000000E+00  0.00000000E+00  0.00000000E+00
  0.00000000E+00  0.00000000E+00  0.00000000E+00
  0.00000000E+00  0.00000000E+00  0.00000000E+00
  0.00000000E+00  0.00000000E+00  0.00000000E+00
  0.00000000E+00  0.00000000E+00  0.00000000E+00
  0.00000000E+00  0.00000000E+00  0.00000000E+00
  0.00000000E+00  0.00000000E+00  0.00000000E+00
  0.00000000E+00  0.00000000E+00  0.00000000E+00
  0.00000000E+00  0.00000000E+00  0.00000000E+00
  0.00000000E+00  0.00000000E+00  0.00000000E+00
  0.00000000E+00  0.00000000E+00  0.00000000E+00
  0.00000000E+00  0.00000000E+00  0.00000000E+00
  0.00000000E+00  0.00000000E+00  0.00000000E+00
  0.00000000E+00  0.00000000E+00  0.00000000E+00
  0.00000000E+00  0.00000000E+00  0.00000000E+00
  0.00000000E+00  0.00000000E+00  0.00000000E+00
  0.00000000E+00  0.00000000E+00  0.00000000E+00
  0.00000000E+00  0.00000000E+00  0.00000000E+00
  0.00000000E+00  0.00000000E+00  0.00000000E+00
  0.00000000E+00  0.00000000E+00  0.00000000E+00
  0.00000000E+00  0.00000000E+00  0.00000000E+00
  0.00000000E+00  0.00000000E+00  0.00000000E+00
  0.00000000E+00  0.00000000E+00  0.00000000E+00
  0.00000000E+00  0.00000000E+00  0.00000000E+00
  0.00000000E+00  0.00000000E+00  0.00000000E+00
  0.00000000E+00  0.00000000E+00  0.00000000E+00
  0.00000000E+00  0.00000000E+00  0.00000000E+00
  0.00000000E+00  0.00000000E+00  0.00000000E+00
  0.00000000E+00  0.00000000E+00  0.00000000E+00
  0.00000000E+00  0.00000000E+00  0.00000000E+00
  0.00000000E+00  0.00000000E+00  0.00000000E+00
  0.00000000E+00  0.00000000E+00  0.00000000E+00
  0.00000000E+00  0.00000000E+00  0.00000000E+00
  0.00000000E+00  0.00000000E+00  0.00000000E+00
  0.00000000E+00  0.00000000E+00  0.00000000E+00
  0.00000000E+00  0.00000000E+00  0.00000000E+00
  0.00000000E+00  0.00000000E+00  0.00000000E+00
  0.00000000E+00  0.00000000E+00  0.00000000E+00
  0.00000000E+00  0.00000000E+00  0.00000000E+00
  0.00000000E+00  0.00000000E+00  0.00000000E+00
  0.00000000E+00  0.00000000E+00  0.00000000E+00
